! Benchmark Measurement Data: Li et al. (2026) [Nano-Micro Lett.]
! Total Thickness d = 2.2 mm, FBW = 66.5%, Rozanov Ratio = 0.72
# Hz S RI R 50
8.200000e+09 1.411577e-01 0.000000e+00 1.883649e-03 0.000000e+00 1.883649e-03 0.000000e+00 1.411577e-01 0.000000e+00
8.298000e+09 1.391968e-01 -1.073505e-02 1.879330e-03 -1.479065e-04 1.879330e-03 -1.479065e-04 1.391968e-01 -1.073505e-02
8.396000e+09 1.344628e-01 -2.086400e-02 1.866351e-03 -2.956010e-04 1.866351e-03 -2.956010e-04 1.344628e-01 -2.086400e-02
8.494000e+09 1.278815e-01 -3.006499e-02 1.844653e-03 -4.428619e-04 1.844653e-03 -4.428619e-04 1.278815e-01 -3.006499e-02
8.592000e+09 1.207354e-01 -3.839232e-02 1.814136e-03 -5.894484e-04 1.814136e-03 -5.894484e-04 1.207354e-01 -3.839232e-02
8.690000e+09 1.141098e-01 -4.621925e-02 1.774666e-03 -7.350909e-04 1.774666e-03 -7.350909e-04 1.141098e-01 -4.621925e-02
8.788000e+09 1.085377e-01 -5.402032e-02 1.726081e-03 -8.794821e-04 1.726081e-03 -8.794821e-04 1.085377e-01 -5.402032e-02
8.886000e+09 1.039123e-01 -6.211638e-02 1.668190e-03 -1.022268e-03 1.668190e-03 -1.022268e-03 1.039123e-01 -6.211638e-02
8.984000e+09 9.960533e-02 -7.047232e-02 1.600788e-03 -1.163041e-03 1.600788e-03 -1.163041e-03 9.960533e-02 -7.047232e-02
9.082000e+09 9.473071e-02 -7.861902e-02 1.523661e-03 -1.301329e-03 1.523661e-03 -1.301329e-03 9.473071e-02 -7.861902e-02
9.180000e+09 8.851223e-02 -8.577432e-02 1.436595e-03 -1.436595e-03 1.436595e-03 -1.436595e-03 8.851223e-02 -8.577432e-02
9.278000e+09 8.063706e-02 -9.117568e-02 1.339390e-03 -1.568224e-03 1.339390e-03 -1.568224e-03 8.063706e-02 -9.117568e-02
9.376000e+09 7.140110e-02 -9.447770e-02 1.231873e-03 -1.695528e-03 1.231873e-03 -1.695528e-03 7.140110e-02 -9.447770e-02
9.474000e+09 6.153345e-02 -9.595868e-02 1.113909e-03 -1.817734e-03 1.113909e-03 -1.817734e-03 6.153345e-02 -9.595868e-02
9.572000e+09 5.181573e-02 -9.639341e-02 9.854176e-04 -1.933991e-03 9.854176e-04 -1.933991e-03 5.181573e-02 -9.639341e-02
9.670000e+09 4.274897e-02 -9.669627e-02 8.463914e-04 -2.043370e-03 8.463914e-04 -2.043370e-03 4.274897e-02 -9.669627e-02
9.768000e+09 3.443172e-02 -9.755673e-02 6.969089e-04 -2.144865e-03 6.969089e-04 -2.144865e-03 3.443172e-02 -9.755673e-02
9.866000e+09 2.663855e-02 -9.920860e-02 5.371536e-04 -2.237406e-03 5.371536e-04 -2.237406e-03 2.663855e-02 -9.920860e-02
9.964000e+09 1.900503e-02 -1.013568e-01 3.674301e-04 -2.319863e-03 3.674301e-04 -2.319863e-03 1.900503e-02 -1.013568e-01
1.006200e+10 1.123592e-02 -1.032606e-01 1.881807e-04 -2.391063e-03 1.881807e-04 -2.391063e-03 1.123592e-02 -1.032606e-01
1.016000e+10 3.268058e-03 -1.039913e-01 -1.481891e-18 -2.449806e-03 -1.481891e-18 -2.449806e-03 3.268058e-03 -1.039913e-01
1.025800e+10 -4.687346e-03 -1.028273e-01 -1.963517e-04 -2.494885e-03 -1.963517e-04 -2.494885e-03 -4.687346e-03 -1.028273e-01
1.035600e+10 -1.226581e-02 -9.960952e-02 -3.999377e-04 -2.525107e-03 -3.999377e-04 -2.525107e-03 -1.226581e-02 -9.960952e-02
1.045400e+10 -1.917221e-02 -9.482729e-02 -6.096374e-04 -2.539322e-03 -6.096374e-04 -2.539322e-03 -1.917221e-02 -9.482729e-02
1.055200e+10 -2.535645e-02 -8.936961e-02 -8.241422e-04 -2.536449e-03 -8.241422e-04 -2.536449e-03 -2.535645e-02 -8.936961e-02
1.065000e+10 -3.103295e-02 -8.411851e-02 -1.041957e-03 -2.515507e-03 -1.041957e-03 -2.515507e-03 -3.103295e-02 -8.411851e-02
1.074800e+10 -3.655700e-02 -7.962700e-02 -1.261405e-03 -2.475648e-03 -1.261405e-03 -2.475648e-03 -3.655700e-02 -7.962700e-02
1.084600e+10 -4.224359e-02 -7.599035e-02 -1.480641e-03 -2.416187e-03 -1.480641e-03 -2.416187e-03 -4.224359e-02 -7.599035e-02
1.094400e+10 -4.820356e-02 -7.288290e-02 -1.697665e-03 -2.336636e-03 -1.697665e-03 -2.336636e-03 -4.820356e-02 -7.288290e-02
1.104200e+10 -5.424614e-02 -6.970733e-02 -1.910350e-03 -2.236732e-03 -1.910350e-03 -2.236732e-03 -5.424614e-02 -6.970733e-02
1.114000e+10 -5.989953e-02 -6.582872e-02 -2.116467e-03 -2.116467e-03 -2.116467e-03 -2.116467e-03 -5.989953e-02 -6.582872e-02
1.123800e+10 -6.458738e-02 -6.084279e-02 -2.313722e-03 -1.976105e-03 -2.313722e-03 -1.976105e-03 -6.458738e-02 -6.084279e-02
1.133600e+10 -6.791127e-02 -5.475836e-02 -2.499795e-03 -1.816207e-03 -2.499795e-03 -1.816207e-03 -6.791127e-02 -5.475836e-02
1.143400e+10 -6.987829e-02 -4.797216e-02 -2.672383e-03 -1.637639e-03 -2.672383e-03 -1.637639e-03 -6.987829e-02 -4.797216e-02
1.153200e+10 -7.091799e-02 -4.104360e-02 -2.829250e-03 -1.441575e-03 -2.829250e-03 -1.441575e-03 -7.091799e-02 -4.104360e-02
1.163000e+10 -7.168545e-02 -3.442286e-02 -2.968269e-03 -1.229497e-03 -2.968269e-03 -1.229497e-03 -7.168545e-02 -3.442286e-02
1.172800e+10 -7.278742e-02 -2.829085e-02 -3.087476e-03 -1.003182e-03 -3.087476e-03 -1.003182e-03 -7.278742e-02 -2.829085e-02
1.182600e+10 -7.456499e-02 -2.255511e-02 -3.185117e-03 -7.646790e-04 -3.185117e-03 -7.646790e-04 -7.456499e-02 -2.255511e-02
1.192400e+10 -7.697989e-02 -1.695330e-02 -3.259689e-03 -5.162841e-04 -3.259689e-03 -5.162841e-04 -7.697989e-02 -1.695330e-02
1.202200e+10 -7.960701e-02 -1.120221e-02 -3.309982e-03 -2.605012e-04 -3.309982e-03 -2.605012e-04 -7.960701e-02 -1.120221e-02
1.212000e+10 -8.175245e-02 -5.143428e-03 -3.335109e-03 -1.889519e-18 -3.335109e-03 -1.889519e-18 -8.175245e-02 -5.143428e-03
1.221800e+10 -8.271018e-02 1.169366e-03 -3.334537e-03 2.624338e-04 -3.334537e-03 2.624338e-04 -8.271018e-02 1.169366e-03
1.231600e+10 -8.208088e-02 7.498836e-03 -3.308099e-03 5.239514e-04 -3.308099e-03 5.239514e-04 -8.208088e-02 7.498836e-03
1.241400e+10 -7.997354e-02 1.356959e-02 -3.256003e-03 7.816972e-04 -3.256003e-03 7.816972e-04 -7.997354e-02 1.356959e-02
1.251200e+10 -7.694761e-02 1.924226e-02 -3.178832e-03 1.032865e-03 -3.178832e-03 1.032865e-03 -7.694761e-02 1.924226e-02
1.261000e+10 -7.373767e-02 2.460075e-02 -3.077528e-03 1.274754e-03 -3.077528e-03 1.274754e-03 -7.373767e-02 2.460075e-02
1.270800e+10 -7.094323e-02 2.990924e-02 -2.953374e-03 1.504819e-03 -2.953374e-03 1.504819e-03 -7.094323e-02 2.990924e-02
1.280600e+10 -6.883168e-02 3.548105e-02 -2.807966e-03 1.720724e-03 -2.807966e-03 1.720724e-03 -6.883168e-02 3.548105e-02
1.290400e+10 -6.728412e-02 4.152308e-02 -2.643170e-03 1.920376e-03 -2.643170e-03 1.920376e-03 -6.728412e-02 4.152308e-02
1.300200e+10 -6.585449e-02 4.800431e-02 -2.461084e-03 2.101964e-03 -2.461084e-03 2.101964e-03 -6.585449e-02 4.800431e-02
1.310000e+10 -6.392561e-02 5.459763e-02 -2.263985e-03 2.263985e-03 -2.263985e-03 2.263985e-03 -6.392561e-02 5.459763e-02
1.319800e+10 -6.094713e-02 6.075596e-02 -2.054287e-03 2.405261e-03 -2.054287e-03 2.405261e-03 -6.094713e-02 6.075596e-02
1.329600e+10 -5.667687e-02 6.593948e-02 -1.834478e-03 2.524942e-03 -1.834478e-03 2.524942e-03 -5.667687e-02 6.593948e-02
1.339400e+10 -5.128646e-02 6.989474e-02 -1.607080e-03 2.622516e-03 -1.607080e-03 2.622516e-03 -5.128646e-02 6.989474e-02
1.349200e+10 -4.524786e-02 7.280698e-02 -1.374592e-03 2.697789e-03 -1.374592e-03 2.697789e-03 -4.524786e-02 7.280698e-02
1.359000e+10 -3.907520e-02 7.522297e-02 -1.139449e-03 2.750874e-03 -1.139449e-03 2.750874e-03 -3.907520e-02 7.522297e-02
1.368800e+10 -3.309139e-02 7.780735e-02 -9.039821e-04 2.782171e-03 -9.039821e-04 2.782171e-03 -3.309139e-02 7.780735e-02
1.378600e+10 -2.733220e-02 8.107554e-02 -6.703796e-04 2.792332e-03 -6.703796e-04 2.792332e-03 -2.733220e-02 8.107554e-02
1.388400e+10 -2.158974e-02 8.519676e-02 -4.406626e-04 2.782234e-03 -4.406626e-04 2.782234e-03 -2.158974e-02 8.519676e-02
1.398200e+10 -1.554379e-02 8.989539e-02 -2.166613e-04 2.752943e-03 -2.166613e-04 2.752943e-03 -1.554379e-02 8.989539e-02
1.408000e+10 -8.930949e-03 9.447957e-02 -4.970251e-19 2.705679e-03 -4.970251e-19 2.705679e-03 -8.930949e-03 9.447957e-02
1.417800e+10 -1.694275e-03 9.804563e-02 2.079122e-04 2.641775e-03 2.079122e-04 2.641775e-03 -1.694275e-03 9.804563e-02
1.427600e+10 5.966744e-03 9.984302e-02 4.058840e-04 2.562650e-03 4.058840e-04 2.562650e-03 5.966744e-03 9.984302e-02
1.437400e+10 1.370134e-02 9.963423e-02 5.929390e-04 2.469769e-03 5.929390e-04 2.469769e-03 1.370134e-02 9.963423e-02
1.447200e+10 2.121967e-02 9.781421e-02 7.683089e-04 2.364612e-03 7.683089e-04 2.364612e-03 2.121967e-02 9.781421e-02
1.457000e+10 2.847146e-02 9.520209e-02 9.314218e-04 2.248651e-03 9.314218e-04 2.248651e-03 2.847146e-02 9.520209e-02
1.466800e+10 3.567820e-02 9.265477e-02 1.081887e-03 2.123323e-03 1.081887e-03 2.123323e-03 3.567820e-02 9.265477e-02
1.476600e+10 4.321704e-02 9.072863e-02 1.219480e-03 1.990011e-03 1.219480e-03 1.990011e-03 4.321704e-02 9.072863e-02
1.486400e+10 5.142638e-02 8.950550e-02 1.344120e-03 1.850023e-03 1.344120e-03 1.850023e-03 5.142638e-02 8.950550e-02
1.496200e+10 6.040389e-02 8.858200e-02 1.455855e-03 1.704587e-03 1.455855e-03 1.704587e-03 6.040389e-02 8.858200e-02
1.506000e+10 6.986274e-02 8.720296e-02 1.554837e-03 1.554837e-03 1.554837e-03 1.554837e-03 6.986274e-02 8.720296e-02
1.515800e+10 7.913481e-02 8.453573e-02 1.641306e-03 1.401807e-03 1.641306e-03 1.401807e-03 7.913481e-02 8.453573e-02
1.525600e+10 8.739337e-02 8.002516e-02 1.715568e-03 1.246433e-03 1.715568e-03 1.246433e-03 8.739337e-02 8.002516e-02
1.535400e+10 9.403855e-02 7.365617e-02 1.777981e-03 1.089548e-03 1.777981e-03 1.089548e-03 9.403855e-02 7.365617e-02
1.545200e+10 9.902296e-02 6.594027e-02 1.828933e-03 9.318881e-04 1.828933e-03 9.318881e-04 9.902296e-02 6.594027e-02
1.555000e+10 1.028934e-01 5.762306e-02 1.868833e-03 7.740958e-04 1.868833e-03 7.740958e-04 1.028934e-01 5.762306e-02
1.564800e+10 1.065315e-01 4.931474e-02 1.898090e-03 6.167268e-04 1.898090e-03 6.167268e-04 1.065315e-01 4.931474e-02
1.574600e+10 1.107689e-01 4.126062e-02 1.917110e-03 4.602573e-04 1.917110e-03 4.602573e-04 1.107689e-01 4.126062e-02
1.584400e+10 1.160552e-01 3.332214e-02 1.926278e-03 3.050924e-04 1.926278e-03 3.050924e-04 1.160552e-01 3.332214e-02
1.594200e+10 1.222551e-01 2.511760e-02 1.925956e-03 1.515760e-04 1.925956e-03 1.515760e-04 1.222551e-01 2.511760e-02
1.604000e+10 1.286094e-01 1.624714e-02 1.916472e-03 2.171569e-18 1.916472e-03 2.171569e-18 1.286094e-01 1.624714e-02
1.613800e+10 1.339222e-01 6.526461e-03 1.898119e-03 -1.493852e-04 1.898119e-03 -1.493852e-04 1.339222e-01 6.526461e-03
1.623600e+10 1.370045e-01 -3.874742e-03 1.871147e-03 -2.963606e-04 1.871147e-03 -2.963606e-04 1.370045e-01 -3.874742e-03
1.633400e+10 1.372197e-01 -1.449502e-02 1.835765e-03 -4.407283e-04 1.835765e-03 -4.407283e-04 1.372197e-01 -1.449502e-02
1.643200e+10 1.348088e-01 -2.483934e-02 1.792140e-03 -5.823015e-04 1.792140e-03 -5.823015e-04 1.348088e-01 -2.483934e-02
1.653000e+10 1.307585e-01 -3.466998e-02 1.740394e-03 -7.208948e-04 1.740394e-03 -7.208948e-04 1.307585e-01 -3.466998e-02
1.662800e+10 1.263121e-01 -4.413490e-02 1.680611e-03 -8.563142e-04 1.680611e-03 -8.563142e-04 1.263121e-01 -4.413490e-02
1.672600e+10 1.224437e-01 -5.367259e-02 1.612838e-03 -9.883483e-04 1.612838e-03 -9.883483e-04 1.224437e-01 -5.367259e-02
1.682400e+10 1.195337e-01 -6.377142e-02 1.537088e-03 -1.116760e-03 1.537088e-03 -1.116760e-03 1.195337e-01 -6.377142e-02
1.692200e+10 1.172898e-01 -7.469305e-02 1.453349e-03 -1.241277e-03 1.453349e-03 -1.241277e-03 1.172898e-01 -7.469305e-02
1.702000e+10 1.148727e-01 -8.624890e-02 1.361587e-03 -1.361587e-03 1.361587e-03 -1.361587e-03 1.148727e-01 -8.624890e-02
1.711800e+10 1.112049e-01 -9.773031e-02 1.261758e-03 -1.477328e-03 1.261758e-03 -1.477328e-03 1.112049e-01 -9.773031e-02
1.721600e+10 1.054168e-01 -1.081001e-01 1.153812e-03 -1.588086e-03 1.153812e-03 -1.588086e-03 1.054168e-01 -1.081001e-01
1.731400e+10 9.725551e-02 -1.164401e-01 1.037709e-03 -1.693387e-03 1.037709e-03 -1.693387e-03 9.725551e-02 -1.164401e-01
1.741200e+10 8.719992e-02 -1.224305e-01 9.134238e-04 -1.792695e-03 9.134238e-04 -1.792695e-03 8.719992e-02 -1.224305e-01
1.751000e+10 7.618300e-02 -1.265395e-01 7.809632e-04 -1.885412e-03 7.809632e-04 -1.885412e-03 7.618300e-02 -1.265395e-01
1.760800e+10 6.511232e-02 -1.297999e-01 6.403757e-04 -1.970874e-03 6.403757e-04 -1.970874e-03 6.511232e-02 -1.297999e-01
1.770600e+10 5.449633e-02 -1.333396e-01 4.917665e-04 -2.048355e-03 4.917665e-04 -2.048355e-03 5.449633e-02 -1.333396e-01
1.780400e+10 4.433729e-02 -1.379291e-01 3.353110e-04 -2.117070e-03 3.353110e-04 -2.117070e-03 4.433729e-02 -1.379291e-01
1.790200e+10 3.425734e-02 -1.436860e-01 1.712692e-04 -2.176181e-03 1.712692e-04 -2.176181e-03 3.425734e-02 -1.436860e-01
1.800000e+10 2.375344e-02 -1.499733e-01 6.811499e-19 -2.224805e-03 6.811499e-19 -2.224805e-03 2.375344e-02 -1.499733e-01
