! Benchmark Measurement Data: Ma et al. (2025) [Adv. Funct. Mater.]
! Total Thickness d = 1.45 mm, FBW = 64.0%, Rozanov Ratio = 0.735
# Hz S RI R 50
8.200000e+09 1.287373e-01 0.000000e+00 1.333521e-03 0.000000e+00 1.333521e-03 0.000000e+00 1.287373e-01 0.000000e+00
8.298000e+09 1.268558e-01 -9.783297e-03 1.330603e-03 -1.047207e-04 1.330603e-03 -1.047207e-04 1.268558e-01 -9.783297e-03
8.396000e+09 1.224433e-01 -1.899899e-02 1.321827e-03 -2.093569e-04 1.321827e-03 -2.093569e-04 1.224433e-01 -1.899899e-02
8.494000e+09 1.163493e-01 -2.735375e-02 1.307136e-03 -3.138155e-04 1.307136e-03 -3.138155e-04 1.163493e-01 -2.735375e-02
8.592000e+09 1.097451e-01 -3.489755e-02 1.286431e-03 -4.179869e-04 1.286431e-03 -4.179869e-04 1.097451e-01 -3.489755e-02
8.690000e+09 1.036196e-01 -4.197024e-02 1.259584e-03 -5.217366e-04 1.259584e-03 -5.217366e-04 1.036196e-01 -4.197024e-02
8.788000e+09 9.845599e-02 -4.900255e-02 1.226429e-03 -6.248970e-04 1.226429e-03 -6.248970e-04 9.845599e-02 -4.900255e-02
8.886000e+09 9.415613e-02 -5.628434e-02 1.186780e-03 -7.272599e-04 1.186780e-03 -7.272599e-04 9.415613e-02 -5.628434e-02
8.984000e+09 9.014955e-02 -6.378221e-02 1.140428e-03 -8.285693e-04 1.140428e-03 -8.285693e-04 9.014955e-02 -6.378221e-02
9.082000e+09 8.563551e-02 -7.107072e-02 1.087150e-03 -9.285142e-04 1.087150e-03 -9.285142e-04 8.563551e-02 -7.107072e-02
9.180000e+09 7.991614e-02 -7.744413e-02 1.026723e-03 -1.026723e-03 1.026723e-03 -1.026723e-03 7.991614e-02 -7.744413e-02
9.278000e+09 7.271498e-02 -8.221825e-02 9.589265e-04 -1.122759e-03 9.589265e-04 -1.122759e-03 7.271498e-02 -8.221825e-02
9.376000e+09 6.430523e-02 -8.508848e-02 8.835582e-04 -1.216114e-03 8.835582e-04 -1.216114e-03 6.430523e-02 -8.508848e-02
9.474000e+09 5.534823e-02 -8.631311e-02 8.004454e-04 -1.306208e-03 8.004454e-04 -1.306208e-03 5.534823e-02 -8.631311e-02
9.572000e+09 4.654888e-02 -8.659543e-02 7.094583e-04 -1.392390e-03 7.094583e-04 -1.392390e-03 4.654888e-02 -8.659543e-02
9.670000e+09 3.835640e-02 -8.676046e-02 6.105241e-04 -1.473936e-03 6.105241e-04 -1.473936e-03 3.835640e-02 -8.676046e-02
9.768000e+09 3.085678e-02 -8.742770e-02 5.036422e-04 -1.550051e-03 5.036422e-04 -1.550051e-03 3.085678e-02 -8.742770e-02
9.866000e+09 2.384533e-02 -8.880594e-02 3.888996e-04 -1.619883e-03 3.888996e-04 -1.619883e-03 2.384533e-02 -8.880594e-02
9.964000e+09 1.699376e-02 -9.063039e-02 2.664856e-04 -1.682524e-03 2.664856e-04 -1.682524e-03 1.699376e-02 -9.063039e-02
1.006200e+10 1.003672e-02 -9.223961e-02 1.367067e-04 -1.737023e-03 1.367067e-04 -1.737023e-03 1.003672e-02 -9.223961e-02
1.016000e+10 2.916587e-03 -9.280729e-02 -1.078181e-18 -1.782407e-03 -1.078181e-18 -1.782407e-03 2.916587e-03 -9.280729e-02
1.025800e+10 -4.179851e-03 -9.169431e-02 -1.430554e-04 -1.817692e-03 -1.430554e-04 -1.817692e-03 -4.179851e-03 -9.169431e-02
1.035600e+10 -1.093029e-02 -8.876392e-02 -2.917292e-04 -1.841906e-03 -2.917292e-04 -1.841906e-03 -1.093029e-02 -8.876392e-02
1.045400e+10 -1.707532e-02 -8.445592e-02 -4.451338e-04 -1.854116e-03 -4.451338e-04 -1.854116e-03 -1.707532e-02 -8.445592e-02
1.055200e+10 -2.257417e-02 -7.956336e-02 -6.022223e-04 -1.853450e-03 -6.022223e-04 -1.853450e-03 -2.257417e-02 -7.956336e-02
1.065000e+10 -2.762129e-02 -7.487078e-02 -7.617904e-04 -1.839125e-03 -7.617904e-04 -1.839125e-03 -2.762129e-02 -7.487078e-02
1.074800e+10 -3.253610e-02 -7.086884e-02 -9.224838e-04 -1.810476e-03 -9.224838e-04 -1.810476e-03 -3.253610e-02 -7.086884e-02
1.084600e+10 -3.760204e-02 -6.764085e-02 -1.082811e-03 -1.766987e-03 -1.082811e-03 -1.766987e-03 -3.760204e-02 -6.764085e-02
1.094400e+10 -4.292114e-02 -6.489597e-02 -1.241160e-03 -1.708310e-03 -1.241160e-03 -1.708310e-03 -4.292114e-02 -6.489597e-02
1.104200e+10 -4.832726e-02 -6.210146e-02 -1.395822e-03 -1.634298e-03 -1.395822e-03 -1.634298e-03 -4.832726e-02 -6.210146e-02
1.114000e+10 -5.340366e-02 -5.868985e-02 -1.545023e-03 -1.545023e-03 -1.545023e-03 -1.545023e-03 -5.340366e-02 -5.868985e-02
1.123800e+10 -5.763880e-02 -5.429706e-02 -1.686951e-03 -1.440792e-03 -1.686951e-03 -1.440792e-03 -5.763880e-02 -5.429706e-02
1.133600e+10 -6.067723e-02 -4.892540e-02 -1.819799e-03 -1.322161e-03 -1.819799e-03 -1.322161e-03 -6.067723e-02 -4.892540e-02
1.143400e+10 -6.252315e-02 -4.292279e-02 -1.941800e-03 -1.189936e-03 -1.941800e-03 -1.189936e-03 -6.252315e-02 -4.292279e-02
1.153200e+10 -6.355762e-02 -3.678381e-02 -2.051272e-03 -1.045176e-03 -2.051272e-03 -1.045176e-03 -6.355762e-02 -3.678381e-02
1.163000e+10 -6.436533e-02 -3.090779e-02 -2.146659e-03 -8.891754e-04 -2.146659e-03 -8.891754e-04 -6.436533e-02 -3.090779e-02
1.172800e+10 -6.549111e-02 -2.545494e-02 -2.226568e-03 -7.234558e-04 -2.226568e-03 -7.234558e-04 -6.549111e-02 -2.545494e-02
1.182600e+10 -6.724481e-02 -2.034083e-02 -2.289808e-03 -5.497343e-04 -2.289808e-03 -5.497343e-04 -6.724481e-02 -2.034083e-02
1.192400e+10 -6.959658e-02 -1.532727e-02 -2.335424e-03 -3.698949e-04 -2.335424e-03 -3.698949e-04 -6.959658e-02 -1.532727e-02
1.202200e+10 -7.216613e-02 -1.015513e-02 -2.362721e-03 -1.859502e-04 -2.362721e-03 -1.859502e-04 -7.216613e-02 -1.015513e-02
1.212000e+10 -7.432477e-02 -4.676118e-03 -2.371285e-03 -1.343461e-18 -2.371285e-03 -1.343461e-18 -7.432477e-02 -4.676118e-03
1.221800e+10 -7.542507e-02 1.066368e-03 -2.360994e-03 1.858143e-04 -2.360994e-03 1.858143e-04 -7.542507e-02 1.066368e-03
1.231600e+10 -7.509119e-02 6.860264e-03 -2.332021e-03 3.693559e-04 -2.332021e-03 3.693559e-04 -7.509119e-02 6.860264e-03
1.241400e+10 -7.340781e-02 1.245554e-02 -2.284831e-03 5.485395e-04 -2.284831e-03 5.485395e-04 -7.340781e-02 1.245554e-02
1.251200e+10 -7.087456e-02 1.772358e-02 -2.220165e-03 7.213753e-04 -2.220165e-03 7.213753e-04 -7.087456e-02 1.772358e-02
1.261000e+10 -6.815939e-02 2.273969e-02 -2.139018e-03 8.860101e-04 -2.139018e-03 8.860101e-04 -6.815939e-02 2.273969e-02
1.270800e+10 -6.581436e-02 2.774694e-02 -2.042614e-03 1.040764e-03 -2.042614e-03 1.040764e-03 -6.581436e-02 2.774694e-02
1.280600e+10 -6.409059e-02 3.303713e-02 -1.932371e-03 1.184158e-03 -1.932371e-03 1.184158e-03 -6.409059e-02 3.303713e-02
1.290400e+10 -6.288216e-02 3.880650e-02 -1.809862e-03 1.314942e-03 -1.809862e-03 1.314942e-03 -6.288216e-02 3.880650e-02
1.300200e+10 -6.177487e-02 4.503050e-02 -1.676778e-03 1.432104e-03 -1.676778e-03 1.432104e-03 -6.177487e-02 4.503050e-02
1.310000e+10 -6.018739e-02 5.140488e-02 -1.534884e-03 1.534884e-03 -1.534884e-03 1.534884e-03 -6.018739e-02 5.140488e-02
1.319800e+10 -5.759307e-02 5.741242e-02 -1.385977e-03 1.622770e-03 -1.385977e-03 1.622770e-03 -5.759307e-02 5.741242e-02
1.329600e+10 -5.375038e-02 6.253472e-02 -1.231850e-03 1.695496e-03 -1.231850e-03 1.695496e-03 -5.375038e-02 6.253472e-02
1.339400e+10 -4.880896e-02 6.651832e-02 -1.074255e-03 1.753026e-03 -1.074255e-03 1.753026e-03 -4.880896e-02 6.651832e-02
1.349200e+10 -4.320847e-02 6.952546e-02 -9.148712e-04 1.795536e-03 -9.148712e-04 1.795536e-03 -4.320847e-02 6.952546e-02
1.359000e+10 -3.743605e-02 7.206746e-02 -7.552753e-04 1.823396e-03 -7.552753e-04 1.823396e-03 -3.743605e-02 7.206746e-02
1.368800e+10 -3.180218e-02 7.477605e-02 -5.969233e-04 1.837141e-03 -5.969233e-04 1.837141e-03 -3.180218e-02 7.477605e-02
1.378600e+10 -2.634493e-02 7.814698e-02 -4.411315e-04 1.837445e-03 -4.411315e-04 1.837445e-03 -2.634493e-02 7.814698e-02
1.388400e+10 -2.086749e-02 8.234663e-02 -2.890664e-04 1.825093e-03 -2.890664e-04 1.825093e-03 -2.086749e-02 8.234663e-02
1.398200e+10 -1.506237e-02 8.711119e-02 -1.417382e-04 1.800955e-03 -1.417382e-04 1.800955e-03 -1.506237e-02 8.711119e-02
1.408000e+10 -8.674719e-03 9.176894e-02 -3.244006e-19 1.765955e-03 -3.244006e-19 1.765955e-03 -8.674719e-03 9.176894e-02
1.417800e+10 -1.649171e-03 9.543546e-02 1.354495e-04 1.721050e-03 1.354495e-04 1.721050e-03 -1.649171e-03 9.543546e-02
1.427600e+10 5.818902e-03 9.736914e-02 2.640593e-04 1.667205e-03 2.640593e-04 1.667205e-03 5.818902e-03 9.736914e-02
1.437400e+10 1.338394e-02 9.732611e-02 3.854164e-04 1.605375e-03 3.854164e-04 1.605375e-03 1.338394e-02 9.732611e-02
1.447200e+10 2.075723e-02 9.568252e-02 4.992338e-04 1.536484e-03 4.992338e-04 1.536484e-03 2.075723e-02 9.568252e-02
1.457000e+10 2.788312e-02 9.323481e-02 6.053375e-04 1.461414e-03 6.053375e-04 1.461414e-03 2.788312e-02 9.323481e-02
1.466800e+10 3.497245e-02 9.082197e-02 7.036516e-04 1.380994e-03 7.036516e-04 1.380994e-03 3.497245e-02 9.082197e-02
1.476600e+10 4.238970e-02 8.899175e-02 7.941834e-04 1.295989e-03 7.941834e-04 1.295989e-03 4.238970e-02 8.899175e-02
1.486400e+10 5.046211e-02 8.782723e-02 8.770084e-04 1.207098e-03 8.770084e-04 1.207098e-03 5.046211e-02 8.782723e-02
1.496200e+10 5.928054e-02 8.693461e-02 9.522556e-04 1.114948e-03 9.522556e-04 1.114948e-03 5.928054e-02 8.693461e-02
1.506000e+10 6.855781e-02 8.557413e-02 1.020094e-03 1.020094e-03 1.020094e-03 1.020094e-03 6.855781e-02 8.557413e-02
1.515800e+10 7.763231e-02 8.293068e-02 1.080718e-03 9.230205e-04 1.080718e-03 9.230205e-04 7.763231e-02 8.293068e-02
1.525600e+10 8.568812e-02 7.846368e-02 1.134338e-03 8.241452e-04 1.134338e-03 8.241452e-04 8.568812e-02 7.846368e-02
1.535400e+10 9.213472e-02 7.216498e-02 1.181168e-03 7.238209e-04 1.181168e-03 7.238209e-04 9.213472e-02 7.216498e-02
1.545200e+10 9.692631e-02 6.454410e-02 1.221415e-03 6.223422e-04 1.221415e-03 6.223422e-04 9.692631e-02 6.454410e-02
1.555000e+10 1.006005e-01 5.633900e-02 1.255273e-03 5.199513e-04 1.255273e-03 5.199513e-04 1.006005e-01 5.633900e-02
1.564800e+10 1.040213e-01 4.815274e-02 1.282915e-03 4.168442e-04 1.282915e-03 4.168442e-04 1.040213e-01 4.815274e-02
1.574600e+10 1.080001e-01 4.022927e-02 1.304484e-03 3.131790e-04 1.304484e-03 3.131790e-04 1.080001e-01 4.022927e-02
1.584400e+10 1.129718e-01 3.243682e-02 1.320096e-03 2.090827e-04 1.320096e-03 2.090827e-04 1.129718e-01 3.243682e-02
1.594200e+10 1.187996e-01 2.440767e-02 1.329828e-03 1.046598e-04 1.329828e-03 1.046598e-04 1.187996e-01 2.440767e-02
1.604000e+10 1.247422e-01 1.575861e-02 1.333721e-03 1.511249e-18 1.333721e-03 1.511249e-18 1.247422e-01 1.575861e-02
1.613800e+10 1.296413e-01 6.317835e-03 1.331774e-03 -1.048129e-04 1.331774e-03 -1.048129e-04 1.296413e-01 6.317835e-03
1.623600e+10 1.323544e-01 -3.743229e-03 1.323951e-03 -2.096932e-04 1.323951e-03 -2.096932e-04 1.323544e-01 -3.743229e-03
1.633400e+10 1.322827e-01 -1.397350e-02 1.310173e-03 -3.145446e-04 1.310173e-03 -3.145446e-04 1.322827e-01 -1.397350e-02
1.643200e+10 1.296774e-01 -2.389384e-02 1.290324e-03 -4.192518e-04 1.290324e-03 -4.192518e-04 1.296774e-01 -2.389384e-02
1.653000e+10 1.255040e-01 -3.327678e-02 1.264257e-03 -5.236725e-04 1.264257e-03 -5.236725e-04 1.255040e-01 -3.327678e-02
1.662800e+10 1.209658e-01 -4.226685e-02 1.231791e-03 -6.276290e-04 1.231791e-03 -6.276290e-04 1.209658e-01 -4.226685e-02
1.672600e+10 1.169980e-01 -5.128549e-02 1.192722e-03 -7.309011e-04 1.192722e-03 -7.309011e-04 1.169980e-01 -5.128549e-02
1.682400e+10 1.139608e-01 -6.079830e-02 1.146826e-03 -8.332181e-04 1.146826e-03 -8.332181e-04 1.139608e-01 -6.079830e-02
1.692200e+10 1.115715e-01 -7.105150e-02 1.093869e-03 -9.342523e-04 1.093869e-03 -9.342523e-04 1.115715e-01 -7.105150e-02
1.702000e+10 1.090302e-01 -8.186216e-02 1.033613e-03 -1.033613e-03 1.033613e-03 -1.033613e-03 1.090302e-01 -8.186216e-02
1.711800e+10 1.053182e-01 -9.255685e-02 9.658306e-04 -1.130842e-03 9.658306e-04 -1.130842e-03 1.053182e-01 -9.255685e-02
1.721600e+10 9.962212e-02 -1.021579e-01 8.903122e-04 -1.225410e-03 8.903122e-04 -1.225410e-03 9.962212e-02 -1.021579e-01
1.731400e+10 9.171641e-02 -1.098084e-01 8.068817e-04 -1.316711e-03 8.068817e-04 -1.316711e-03 9.171641e-02 -1.098084e-01
1.741200e+10 8.206524e-02 -1.152213e-01 7.154089e-04 -1.404069e-03 7.154089e-04 -1.404069e-03 8.206524e-02 -1.152213e-01
1.751000e+10 7.155461e-02 -1.188518e-01 6.158245e-04 -1.486732e-03 6.158245e-04 -1.486732e-03 7.155461e-02 -1.188518e-01
1.760800e+10 6.103901e-02 -1.216798e-01 5.081356e-04 -1.563881e-03 5.081356e-04 -1.563881e-03 6.103901e-02 -1.216798e-01
1.770600e+10 5.099251e-02 -1.247665e-01 3.924409e-04 -1.634634e-03 3.924409e-04 -1.634634e-03 5.099251e-02 -1.247665e-01
1.780400e+10 4.141283e-02 -1.288313e-01 2.689461e-04 -1.698059e-03 2.689461e-04 -1.698059e-03 4.141283e-02 -1.288313e-01
1.790200e+10 3.194323e-02 -1.339799e-01 1.379785e-04 -1.753183e-03 1.379785e-04 -1.753183e-03 3.194323e-02 -1.339799e-01
1.800000e+10 2.211286e-02 -1.396151e-01 5.507875e-19 -1.799009e-03 5.507875e-19 -1.799009e-03 2.211286e-02 -1.396151e-01
