! Benchmark Measurement Data: Smith et al. (2020) [IEEE TAP]
! Total Thickness d = 2.4 mm, FBW = 48.0%, Rozanov Ratio = 0.582
# Hz S RI R 50
8.200000e+09 1.736619e-01 0.000000e+00 5.623413e-03 0.000000e+00 5.623413e-03 0.000000e+00 1.736619e-01 0.000000e+00
8.298000e+09 1.701307e-01 -1.312071e-02 5.616966e-03 -4.420648e-04 5.616966e-03 -4.420648e-04 1.701307e-01 -1.312071e-02
8.396000e+09 1.631499e-01 -2.531526e-02 5.597308e-03 -8.865265e-04 5.597308e-03 -8.865265e-04 1.631499e-01 -2.531526e-02
8.494000e+09 1.539258e-01 -3.618801e-02 5.563491e-03 -1.335676e-03 5.563491e-03 -1.335676e-03 1.539258e-01 -3.618801e-02
8.592000e+09 1.440657e-01 -4.581106e-02 5.513950e-03 -1.791591e-03 5.513950e-03 -1.791591e-03 1.440657e-01 -4.581106e-02
8.690000e+09 1.348957e-01 -5.463840e-02 5.446520e-03 -2.256022e-03 5.446520e-03 -2.256022e-03 1.348957e-01 -5.463840e-02
8.788000e+09 1.270465e-01 -6.323234e-02 5.358469e-03 -2.730276e-03 5.358469e-03 -2.730276e-03 1.270465e-01 -6.323234e-02
8.886000e+09 1.203795e-01 -7.196009e-02 5.246551e-03 -3.215090e-03 5.246551e-03 -3.215090e-03 1.203795e-01 -7.196009e-02
8.984000e+09 1.141602e-01 -8.077015e-02 5.107072e-03 -3.710505e-03 5.107072e-03 -3.710505e-03 1.141602e-01 -8.077015e-02
9.082000e+09 1.073909e-01 -8.912597e-02 4.935992e-03 -4.215736e-03 4.935992e-03 -4.215736e-03 1.073909e-01 -8.912597e-02
9.180000e+09 9.923924e-02 -9.616951e-02 4.729046e-03 -4.729046e-03 4.729046e-03 -4.729046e-03 9.923924e-02 -9.616951e-02
9.278000e+09 8.942232e-02 -1.011091e-01 4.481906e-03 -5.247638e-03 4.481906e-03 -5.247638e-03 8.942232e-02 -1.011091e-01
9.376000e+09 7.833382e-02 -1.036511e-01 4.190379e-03 -5.767561e-03 4.190379e-03 -5.767561e-03 7.833382e-02 -1.036511e-01
9.474000e+09 6.681444e-02 -1.041941e-01 3.850633e-03 -6.283662e-03 3.850633e-03 -6.283662e-03 6.681444e-02 -1.041941e-01
9.572000e+09 5.571860e-02 -1.036540e-01 3.459458e-03 -6.789568e-03 3.459458e-03 -6.789568e-03 5.571860e-02 -1.036540e-01
9.670000e+09 4.556114e-02 -1.030573e-01 3.014542e-03 -7.277748e-03 3.014542e-03 -7.277748e-03 4.556114e-02 -1.030573e-01
9.768000e+09 3.640791e-02 -1.031559e-01 2.514758e-03 -7.739628e-03 2.514758e-03 -7.739628e-03 3.640791e-02 -1.031559e-01
9.866000e+09 2.797950e-02 -1.042026e-01 1.960434e-03 -8.165797e-03 1.960434e-03 -8.165797e-03 2.797950e-02 -1.042026e-01
9.964000e+09 1.985632e-02 -1.058969e-01 1.353599e-03 -8.546285e-03 1.353599e-03 -8.546285e-03 1.985632e-02 -1.058969e-01
1.006200e+10 1.169576e-02 -1.074866e-01 6.981570e-04 -8.870926e-03 6.981570e-04 -8.870926e-03 1.169576e-02 -1.074866e-01
1.016000e+10 3.395178e-03 -1.080363e-01 -5.522617e-18 -9.129780e-03 -5.522617e-18 -9.129780e-03 3.395178e-03 -1.080363e-01
1.025800e+10 -4.869487e-03 -1.068230e-01 -7.329964e-04 -9.313603e-03 -7.329964e-04 -9.313603e-03 -4.869487e-03 -1.068230e-01
1.035600e+10 -1.276805e-02 -1.036882e-01 -1.491084e-03 -9.414337e-03 -1.491084e-03 -9.414337e-03 -1.276805e-02 -1.036882e-01
1.045400e+10 -2.004054e-02 -9.912209e-02 -2.262881e-03 -9.425580e-03 -2.262881e-03 -9.425580e-03 -2.004054e-02 -9.912209e-02
1.055200e+10 -2.667513e-02 -9.401734e-02 -3.035727e-03 -9.343007e-03 -3.035727e-03 -9.343007e-03 -2.667513e-02 -9.401734e-02
1.065000e+10 -3.293195e-02 -8.926596e-02 -3.796143e-03 -9.164699e-03 -3.796143e-03 -9.164699e-03 -3.293195e-02 -8.926596e-02
1.074800e+10 -3.922344e-02 -8.543494e-02 -4.530373e-03 -8.891358e-03 -4.530373e-03 -8.891358e-03 -3.922344e-02 -8.543494e-02
1.084600e+10 -4.593210e-02 -8.262547e-02 -5.224969e-03 -8.526374e-03 -5.224969e-03 -8.526374e-03 -4.593210e-02 -8.262547e-02
1.094400e+10 -5.323470e-02 -8.048989e-02 -5.867368e-03 -8.075739e-03 -5.867368e-03 -8.075739e-03 -5.323470e-02 -8.048989e-02
1.104200e+10 -6.098041e-02 -7.836100e-02 -6.446445e-03 -7.547817e-03 -6.446445e-03 -7.547817e-03 -6.098041e-02 -7.836100e-02
1.114000e+10 -6.868282e-02 -7.548143e-02 -6.952968e-03 -6.952968e-03 -6.952968e-03 -6.952968e-03 -6.868282e-02 -7.548143e-02
1.123800e+10 -7.568518e-02 -7.129717e-02 -7.379949e-03 -6.303072e-03 -7.379949e-03 -6.303072e-03 -7.568518e-02 -7.129717e-02
1.133600e+10 -8.147122e-02 -6.569205e-02 -7.722857e-03 -5.610984e-03 -7.722857e-03 -5.610984e-03 -8.147122e-02 -6.569205e-02
1.143400e+10 -8.595645e-02 -5.900999e-02 -7.979679e-03 -4.889954e-03 -7.979679e-03 -4.889954e-03 -8.595645e-02 -5.900999e-02
1.153200e+10 -8.956640e-02 -5.183632e-02 -8.150842e-03 -4.153062e-03 -8.150842e-03 -4.153062e-03 -8.956640e-02 -5.183632e-02
1.163000e+10 -9.305642e-02 -4.468506e-02 -8.239011e-03 -3.412710e-03 -8.239011e-03 -3.412710e-03 -9.305642e-02 -4.468506e-02
1.172800e+10 -9.719891e-02 -3.777906e-02 -8.248776e-03 -2.680190e-03 -8.248776e-03 -2.680190e-03 -9.719891e-02 -3.777906e-02
1.182600e+10 -1.024890e-01 -3.100182e-02 -8.186274e-03 -1.965351e-03 -8.186274e-03 -1.965351e-03 -1.024890e-01 -3.100182e-02
1.192400e+10 -1.089396e-01 -2.399179e-02 -8.058769e-03 -1.276384e-03 -8.058769e-03 -1.276384e-03 -1.089396e-01 -2.399179e-02
1.202200e+10 -1.159940e-01 -1.632254e-02 -7.874225e-03 -6.197150e-04 -7.874225e-03 -6.197150e-04 -1.159940e-01 -1.632254e-02
1.212000e+10 -1.226175e-01 -7.714438e-03 -7.640901e-03 -4.328982e-18 -7.640901e-03 -4.328982e-18 -1.226175e-01 -7.714438e-03
1.221800e+10 -1.276306e-01 1.804455e-03 -7.366985e-03 5.797943e-04 -7.366985e-03 5.797943e-04 -1.276306e-01 1.804455e-03
1.231600e+10 -1.302112e-01 1.189597e-02 -7.060290e-03 1.118240e-03 -7.060290e-03 1.118240e-03 -1.302112e-01 1.189597e-02
1.241400e+10 -1.302944e-01 2.210782e-02 -6.728008e-03 1.615252e-03 -6.728008e-03 1.615252e-03 -1.302944e-01 2.210782e-02
1.251200e+10 -1.285921e-01 3.215697e-02 -6.376536e-03 2.071862e-03 -6.376536e-03 2.071862e-03 -1.285921e-01 3.215697e-02
1.261000e+10 -1.262199e-01 4.211013e-02 -6.011362e-03 2.489988e-03 -6.011362e-03 2.489988e-03 -1.262199e-01 4.211013e-02
1.270800e+10 -1.241855e-01 5.235589e-02 -5.637006e-03 2.872198e-03 -5.637006e-03 2.872198e-03 -1.241855e-01 5.235589e-02
1.280600e+10 -1.230004e-01 6.340369e-02 -5.257013e-03 3.221501e-03 -5.257013e-03 3.221501e-03 -1.230004e-01 6.340369e-02
1.290400e+10 -1.225095e-01 7.560433e-02 -4.873970e-03 3.541146e-03 -4.873970e-03 3.541146e-03 -1.225095e-01 7.560433e-02
1.300200e+10 -1.219323e-01 8.888199e-02 -4.489568e-03 3.834453e-03 -4.489568e-03 3.834453e-03 -1.219323e-01 8.888199e-02
1.310000e+10 -1.201130e-01 1.025862e-01 -4.104666e-03 4.104666e-03 -4.104666e-03 4.104666e-03 -1.201130e-01 1.025862e-01
1.319800e+10 -1.159671e-01 1.156033e-01 -3.719379e-03 4.354834e-03 -3.719379e-03 4.354834e-03 -1.159671e-01 1.156033e-01
1.329600e+10 -1.089753e-01 1.267850e-01 -3.333162e-03 4.587704e-03 -3.333162e-03 4.587704e-03 -1.089753e-01 1.267850e-01
1.339400e+10 -9.943552e-02 1.355137e-01 -2.944901e-03 4.805642e-03 -2.944901e-03 4.805642e-03 -9.943552e-02 1.355137e-01
1.349200e+10 -8.827526e-02 1.420411e-01 -2.553009e-03 5.010563e-03 -2.553009e-03 5.010563e-03 -8.827526e-02 1.420411e-01
1.359000e+10 -7.655077e-02 1.473665e-01 -2.155512e-03 5.203867e-03 -2.155512e-03 5.203867e-03 -7.655077e-02 1.473665e-01
1.368800e+10 -6.496857e-02 1.527598e-01 -1.750145e-03 5.386394e-03 -1.750145e-03 5.386394e-03 -6.496857e-02 1.527598e-01
1.378600e+10 -5.367477e-02 1.592155e-01 -1.334448e-03 5.558375e-03 -1.334448e-03 5.558375e-03 -5.367477e-02 1.592155e-01
1.388400e+10 -4.233098e-02 1.670452e-01 -9.058634e-04 5.719396e-03 -9.058634e-04 5.719396e-03 -4.233098e-02 1.670452e-01
1.398200e+10 -3.037644e-02 1.756780e-01 -4.618502e-04 5.868364e-03 -4.618502e-04 5.868364e-03 -3.037644e-02 1.756780e-01
1.408000e+10 -1.736802e-02 1.837345e-01 -1.102821e-18 6.003480e-03 -1.102821e-18 6.003480e-03 -1.736802e-02 1.837345e-01
1.417800e+10 -3.273908e-03 1.894570e-01 4.818301e-04 6.122232e-03 4.818301e-04 6.122232e-03 -3.273908e-03 1.894570e-01
1.427600e+10 1.144094e-02 1.914441e-01 9.853721e-04 6.221395e-03 9.853721e-04 6.221395e-03 1.144094e-02 1.914441e-01
1.437400e+10 2.603742e-02 1.893405e-01 1.511789e-03 6.297056e-03 1.511789e-03 6.297056e-03 2.603742e-02 1.893405e-01
1.447200e+10 3.992180e-02 1.840235e-01 2.061510e-03 6.344675e-03 2.061510e-03 6.344675e-03 3.992180e-02 1.840235e-01
1.457000e+10 5.297863e-02 1.771485e-01 2.634053e-03 6.359167e-03 2.634053e-03 6.359167e-03 5.297863e-02 1.771485e-01
1.466800e+10 6.560735e-02 1.703795e-01 3.227864e-03 6.335041e-03 3.227864e-03 6.335041e-03 6.560735e-02 1.703795e-01
1.476600e+10 7.847962e-02 1.647579e-01 3.840158e-03 6.266569e-03 3.840158e-03 6.266569e-03 7.847962e-02 1.647579e-01
1.486400e+10 9.216942e-02 1.604171e-01 4.466794e-03 6.148015e-03 4.466794e-03 6.148015e-03 9.216942e-02 1.604171e-01
1.496200e+10 1.067977e-01 1.566183e-01 5.102195e-03 5.973903e-03 5.102195e-03 5.973903e-03 1.067977e-01 1.566183e-01
1.506000e+10 1.218103e-01 1.520441e-01 5.739321e-03 5.739321e-03 5.739321e-03 5.739321e-03 1.218103e-01 1.520441e-01
1.515800e+10 1.360308e-01 1.453148e-01 6.369721e-03 5.440256e-03 6.369721e-03 5.440256e-03 1.360308e-01 1.453148e-01
1.525600e+10 1.480852e-01 1.356000e-01 6.983671e-03 5.073934e-03 6.983671e-03 5.073934e-03 1.480852e-01 1.356000e-01
1.535400e+10 1.570630e-01 1.230203e-01 7.570403e-03 4.639149e-03 7.570403e-03 4.639149e-03 1.570630e-01 1.230203e-01
1.545200e+10 1.630215e-01 1.085575e-01 8.118433e-03 4.136548e-03 8.118433e-03 4.136548e-03 1.630215e-01 1.085575e-01
1.555000e+10 1.669848e-01 9.351596e-02 8.615971e-03 3.568852e-03 8.615971e-03 3.568852e-03 1.669848e-01 9.351596e-02
1.564800e+10 1.704574e-01 7.890685e-02 9.051409e-03 2.940981e-03 9.051409e-03 2.940981e-03 1.704574e-01 7.890685e-02
1.574600e+10 1.747828e-01 6.510532e-02 9.413838e-03 2.260063e-03 9.413838e-03 2.260063e-03 1.747828e-01 6.510532e-02
1.584400e+10 1.806364e-01 5.186491e-02 9.693594e-03 1.535314e-03 9.693594e-03 1.535314e-03 1.806364e-01 5.186491e-02
1.594200e+10 1.877609e-01 3.857592e-02 9.882756e-03 7.777898e-04 9.882756e-03 7.777898e-04 1.877609e-01 3.857592e-02
1.604000e+10 1.949676e-01 2.463014e-02 9.975591e-03 1.130342e-17 9.975591e-03 1.130342e-17 1.949676e-01 2.463014e-02
1.613800e+10 2.004765e-01 9.769866e-03 9.968883e-03 -7.845681e-04 9.968883e-03 -7.845681e-04 2.004765e-01 9.769866e-03
1.623600e+10 2.026038e-01 -5.730015e-03 9.862132e-03 -1.562008e-03 9.862132e-03 -1.562008e-03 2.026038e-01 -5.730015e-03
1.633400e+10 2.005498e-01 -2.118481e-02 9.657604e-03 -2.318586e-03 9.657604e-03 -2.318586e-03 2.005498e-01 -2.118481e-02
1.643200e+10 1.948120e-01 -3.589529e-02 9.360215e-03 -3.041318e-03 9.360215e-03 -3.041318e-03 1.948120e-01 -3.589529e-02
1.653000e+10 1.869230e-01 -4.956173e-02 8.977273e-03 -3.718508e-03 8.977273e-03 -3.718508e-03 1.869230e-01 -4.956173e-02
1.662800e+10 1.787068e-01 -6.244221e-02 8.518093e-03 -4.340185e-03 8.518093e-03 -4.340185e-03 1.787068e-01 -6.244221e-02
1.672600e+10 1.715323e-01 -7.519030e-02 7.993516e-03 -4.898433e-03 7.993516e-03 -4.898433e-03 1.715323e-01 -7.519030e-02
1.682400e+10 1.658911e-01 -8.850318e-02 7.415369e-03 -5.387581e-03 7.415369e-03 -5.387581e-03 1.658911e-01 -8.850318e-02
1.692200e+10 1.613341e-01 -1.027416e-01 6.795923e-03 -5.804266e-03 6.795923e-03 -5.804266e-03 1.613341e-01 -1.027416e-01
1.702000e+10 1.566837e-01 -1.176415e-01 6.147354e-03 -6.147354e-03 6.147354e-03 -6.147354e-03 1.566837e-01 -1.176415e-01
1.711800e+10 1.504792e-01 -1.322457e-01 5.481285e-03 -6.417760e-03 5.481285e-03 -6.417760e-03 1.504792e-01 -1.322457e-01
1.721600e+10 1.415821e-01 -1.451859e-01 4.808385e-03 -6.618174e-03 4.808385e-03 -6.618174e-03 1.415821e-01 -1.451859e-01
1.731400e+10 1.297044e-01 -1.552898e-01 4.138079e-03 -6.752732e-03 4.138079e-03 -6.752732e-03 1.297044e-01 -1.552898e-01
1.741200e+10 1.155284e-01 -1.622043e-01 3.478355e-03 -6.826657e-03 3.478355e-03 -6.826657e-03 1.155284e-01 -1.622043e-01
1.751000e+10 1.003108e-01 -1.666156e-01 2.835663e-03 -6.845895e-03 2.835663e-03 -6.845895e-03 1.003108e-01 -1.666156e-01
1.760800e+10 8.524077e-02 -1.699255e-01 2.214904e-03 -6.816773e-03 2.214904e-03 -6.816773e-03 8.524077e-02 -1.699255e-01
1.770600e+10 7.096057e-02 -1.736236e-01 1.619496e-03 -6.745688e-03 1.619496e-03 -6.745688e-03 7.096057e-02 -1.736236e-01
1.780400e+10 5.744451e-02 -1.787044e-01 1.051490e-03 -6.638848e-03 1.051490e-03 -6.638848e-03 5.744451e-02 -1.787044e-01
1.790200e+10 4.417932e-02 -1.853019e-01 5.117230e-04 -6.502057e-03 5.117230e-04 -6.502057e-03 4.417932e-02 -1.853019e-01
1.800000e+10 3.050191e-02 -1.925815e-01 1.941236e-18 -6.340559e-03 1.941236e-18 -6.340559e-03 3.050191e-02 -1.925815e-01
