! Benchmark Measurement Data: Wang et al. (2024) [Adv. Mater.]
! Total Thickness d = 1.85 mm, FBW = 55.0%, Rozanov Ratio = 0.645
# Hz S RI R 50
8.200000e+09 1.444456e-01 0.000000e+00 2.985383e-03 0.000000e+00 2.985383e-03 0.000000e+00 1.444456e-01 0.000000e+00
8.298000e+09 1.419193e-01 -1.094501e-02 2.980271e-03 -2.345524e-04 2.980271e-03 -2.345524e-04 1.419193e-01 -1.094501e-02
8.396000e+09 1.365410e-01 -2.118647e-02 2.964835e-03 -4.695837e-04 2.964835e-03 -4.695837e-04 1.365410e-01 -2.118647e-02
8.494000e+09 1.292880e-01 -3.039564e-02 2.938777e-03 -7.055378e-04 2.938777e-03 -7.055378e-04 1.292880e-01 -3.039564e-02
8.592000e+09 1.214845e-01 -3.863051e-02 2.901604e-03 -9.427881e-04 2.901604e-03 -9.427881e-04 1.214845e-01 -3.863051e-02
8.690000e+09 1.142354e-01 -4.627011e-02 2.852640e-03 -1.181602e-03 2.852640e-03 -1.181602e-03 1.142354e-01 -4.627011e-02
8.788000e+09 1.080732e-01 -5.378914e-02 2.791038e-03 -1.422105e-03 2.791038e-03 -1.422105e-03 1.080732e-01 -5.378914e-02
8.886000e+09 1.028840e-01 -6.150165e-02 2.715800e-03 -1.664244e-03 2.715800e-03 -1.664244e-03 1.028840e-01 -6.150165e-02
8.984000e+09 9.804114e-02 -6.936563e-02 2.625798e-03 -1.907754e-03 2.625798e-03 -1.907754e-03 9.804114e-02 -6.936563e-02
9.082000e+09 9.267985e-02 -7.691697e-02 2.519808e-03 -2.152120e-03 2.519808e-03 -2.152120e-03 9.267985e-02 -7.691697e-02
9.180000e+09 8.606269e-02 -8.340055e-02 2.396547e-03 -2.396547e-03 2.396547e-03 -2.396547e-03 8.606269e-02 -8.340055e-02
9.278000e+09 7.791830e-02 -8.810160e-02 2.254714e-03 -2.639930e-03 2.254714e-03 -2.639930e-03 7.791830e-02 -8.810160e-02
9.376000e+09 6.856610e-02 -9.072645e-02 2.093048e-03 -2.880834e-03 2.093048e-03 -2.880834e-03 6.856610e-02 -9.072645e-02
9.474000e+09 5.872936e-02 -9.158583e-02 1.910388e-03 -3.117470e-03 1.910388e-03 -3.117470e-03 5.872936e-02 -9.158583e-02
9.572000e+09 4.916093e-02 -9.145466e-02 1.705737e-03 -3.347697e-03 1.705737e-03 -3.347697e-03 4.916093e-02 -9.145466e-02
9.670000e+09 4.032839e-02 -9.122102e-02 1.478338e-03 -3.569023e-03 1.478338e-03 -3.569023e-03 4.032839e-02 -9.122102e-02
9.768000e+09 3.230885e-02 -9.154192e-02 1.227749e-03 -3.778624e-03 1.227749e-03 -3.778624e-03 3.230885e-02 -9.154192e-02
9.866000e+09 2.487376e-02 -9.263609e-02 9.539252e-04 -3.973384e-03 9.539252e-04 -3.973384e-03 2.487376e-02 -9.263609e-02
9.964000e+09 1.766844e-02 -9.422855e-02 6.572871e-04 -4.149947e-03 6.572871e-04 -4.149947e-03 1.766844e-02 -9.422855e-02
1.006200e+10 1.040657e-02 -9.563864e-02 3.387942e-04 -4.304789e-03 3.387942e-04 -4.304789e-03 1.040657e-02 -9.563864e-02
1.016000e+10 3.017641e-03 -9.602290e-02 -2.682319e-18 -4.434308e-03 -2.682319e-18 -4.434308e-03 3.017641e-03 -9.602290e-02
1.025800e+10 -4.318484e-03 -9.473553e-02 -3.569072e-04 -4.534936e-03 -3.569072e-04 -4.534936e-03 -4.318484e-03 -9.473553e-02
1.035600e+10 -1.128523e-02 -9.164635e-02 -7.290845e-04 -4.603258e-03 -7.290845e-04 -4.603258e-03 -1.128523e-02 -9.164635e-02
1.045400e+10 -1.763248e-02 -8.721164e-02 -1.113040e-03 -4.636145e-03 -1.113040e-03 -4.636145e-03 -1.763248e-02 -8.721164e-02
1.055200e+10 -2.333475e-02 -8.224405e-02 -1.504667e-03 -4.630888e-03 -1.504667e-03 -4.630888e-03 -2.333475e-02 -8.224405e-02
1.065000e+10 -2.860779e-02 -7.754481e-02 -1.899307e-03 -4.585333e-03 -1.899307e-03 -4.585333e-03 -2.860779e-02 -7.754481e-02
1.074800e+10 -3.379661e-02 -7.361444e-02 -2.291849e-03 -4.498006e-03 -2.291849e-03 -4.498006e-03 -3.379661e-02 -7.361444e-02
1.084600e+10 -3.921181e-02 -7.053660e-02 -2.676846e-03 -4.368216e-03 -2.676846e-03 -4.368216e-03 -3.921181e-02 -7.053660e-02
1.094400e+10 -4.497926e-02 -6.800782e-02 -3.048671e-03 -4.196136e-03 -3.048671e-03 -4.196136e-03 -4.497926e-02 -6.800782e-02
1.104200e+10 -5.094586e-02 -6.546641e-02 -3.401678e-03 -3.982854e-03 -3.401678e-03 -3.982854e-03 -5.094586e-02 -6.546641e-02
1.114000e+10 -5.668922e-02 -6.230064e-02 -3.730383e-03 -3.730383e-03 -3.730383e-03 -3.730383e-03 -5.668922e-02 -6.230064e-02
1.123800e+10 -6.167169e-02 -5.809614e-02 -4.029642e-03 -3.441640e-03 -4.029642e-03 -3.441640e-03 -6.167169e-02 -5.809614e-02
1.133600e+10 -6.550179e-02 -5.281554e-02 -4.294825e-03 -3.120373e-03 -4.294825e-03 -3.120373e-03 -6.550179e-02 -5.281554e-02
1.143400e+10 -6.815859e-02 -4.679158e-02 -4.521967e-03 -2.771065e-03 -4.521967e-03 -2.771065e-03 -6.815859e-02 -4.679158e-02
1.153200e+10 -7.002793e-02 -4.052848e-02 -4.707901e-03 -2.398795e-03 -4.707901e-03 -2.398795e-03 -7.002793e-02 -4.052848e-02
1.163000e+10 -7.173345e-02 -3.444591e-02 -4.850350e-03 -2.009081e-03 -4.850350e-03 -2.009081e-03 -7.173345e-02 -3.444591e-02
1.172800e+10 -7.387993e-02 -2.871549e-02 -4.947985e-03 -1.607698e-03 -4.947985e-03 -1.607698e-03 -7.387993e-02 -2.871549e-02
1.182600e+10 -7.683292e-02 -2.324113e-02 -5.000444e-03 -1.200500e-03 -5.000444e-03 -1.200500e-03 -7.683292e-02 -2.324113e-02
1.192400e+10 -8.058404e-02 -1.774704e-02 -5.008305e-03 -7.932376e-04 -5.008305e-03 -7.932376e-04 -8.058404e-02 -1.774704e-02
1.202200e+10 -8.471299e-02 -1.192071e-02 -4.973027e-03 -3.913857e-04 -4.973027e-03 -3.913857e-04 -8.471299e-02 -1.192071e-02
1.212000e+10 -8.847913e-02 -5.566635e-03 -4.896858e-03 -2.774334e-18 -4.896858e-03 -2.774334e-18 -8.847913e-02 -5.566635e-03
1.221800e+10 -9.107494e-02 1.287627e-03 -4.782711e-03 3.764075e-04 -4.782711e-03 3.764075e-04 -9.107494e-02 1.287627e-03
1.231600e+10 -9.197767e-02 8.402997e-03 -4.634033e-03 7.339587e-04 -4.634033e-03 7.339587e-04 -9.197767e-02 8.402997e-03
1.241400e+10 -9.120706e-02 1.547565e-02 -4.454654e-03 1.069468e-03 -4.454654e-03 1.069468e-03 -9.120706e-02 1.547565e-02
1.251200e+10 -8.931008e-02 2.233374e-02 -4.248640e-03 1.380467e-03 -4.248640e-03 1.380467e-03 -8.931008e-02 2.233374e-02
1.261000e+10 -8.708431e-02 2.905352e-02 -4.020152e-03 1.665201e-03 -4.020152e-03 1.665201e-03 -8.708431e-02 2.905352e-02
1.270800e+10 -8.522560e-02 3.593061e-02 -3.773313e-03 1.922599e-03 -3.773313e-03 1.922599e-03 -8.522560e-02 3.593061e-02
1.280600e+10 -8.407420e-02 4.333819e-02 -3.512095e-03 2.152215e-03 -3.512095e-03 2.152215e-03 -8.407420e-02 4.333819e-02
1.290400e+10 -8.351307e-02 5.153846e-02 -3.240227e-03 2.354163e-03 -3.240227e-03 2.354163e-03 -8.351307e-02 5.153846e-02
1.300200e+10 -8.300335e-02 6.050490e-02 -2.961117e-03 2.529033e-03 -2.961117e-03 2.529033e-03 -8.300335e-02 6.050490e-02
1.310000e+10 -8.175362e-02 6.982418e-02 -2.677805e-03 2.677805e-03 -2.677805e-03 2.677805e-03 -8.175362e-02 6.982418e-02
1.319800e+10 -7.901637e-02 7.876852e-02 -2.392927e-03 2.801757e-03 -2.392927e-03 2.801757e-03 -7.901637e-02 7.876852e-02
1.329600e+10 -7.441707e-02 8.657894e-02 -2.108704e-03 2.902382e-03 -2.108704e-03 2.902382e-03 -7.441707e-02 8.657894e-02
1.339400e+10 -6.812550e-02 9.284348e-02 -1.826945e-03 2.981303e-03 -1.826945e-03 2.981303e-03 -6.812550e-02 9.284348e-02
1.349200e+10 -6.073710e-02 9.773024e-02 -1.549061e-03 3.040203e-03 -1.549061e-03 3.040203e-03 -6.073710e-02 9.773024e-02
1.359000e+10 -5.294097e-02 1.019157e-01 -1.276092e-03 3.080759e-03 -1.276092e-03 3.080759e-03 -5.294097e-02 1.019157e-01
1.368800e+10 -4.519687e-02 1.062708e-01 -1.008742e-03 3.104587e-03 -1.008742e-03 3.104587e-03 -4.519687e-02 1.062708e-01
1.378600e+10 -3.758607e-02 1.114916e-01 -7.474134e-04 3.113201e-03 -7.474134e-04 3.113201e-03 -3.758607e-02 1.114916e-01
1.388400e+10 -2.985440e-02 1.178105e-01 -4.922541e-04 3.107970e-03 -4.922541e-04 3.107970e-03 -2.985440e-02 1.178105e-01
1.398200e+10 -2.158613e-02 1.248405e-01 -2.431960e-04 3.090098e-03 -2.431960e-04 3.090098e-03 -2.158613e-02 1.248405e-01
1.408000e+10 -1.244014e-02 1.316029e-01 -5.622234e-19 3.060602e-03 -5.622234e-19 3.060602e-03 -1.244014e-02 1.316029e-01
1.417800e+10 -2.364191e-03 1.368128e-01 2.377025e-04 3.020297e-03 2.377025e-04 3.020297e-03 -2.364191e-03 1.368128e-01
1.427600e+10 8.330704e-03 1.393998e-01 4.703691e-04 2.969794e-03 4.703691e-04 2.969794e-03 8.330704e-03 1.393998e-01
1.437400e+10 1.911814e-02 1.390244e-01 6.985072e-04 2.909492e-03 6.985072e-04 2.909492e-03 1.911814e-02 1.390244e-01
1.447200e+10 2.955789e-02 1.362501e-01 9.226375e-04 2.839586e-03 9.226375e-04 2.839586e-03 2.955789e-02 1.362501e-01
1.457000e+10 3.954897e-02 1.322427e-01 1.143258e-03 2.760068e-03 1.143258e-03 2.760068e-03 3.954897e-02 1.322427e-01
1.466800e+10 4.937249e-02 1.282182e-01 1.360809e-03 2.670739e-03 1.360809e-03 2.670739e-03 4.937249e-02 1.282182e-01
1.476600e+10 5.952368e-02 1.249623e-01 1.575644e-03 2.571217e-03 1.575644e-03 2.571217e-03 5.952368e-02 1.249623e-01
1.486400e+10 7.043706e-02 1.225928e-01 1.787992e-03 2.460959e-03 1.787992e-03 2.460959e-03 7.043706e-02 1.225928e-01
1.496200e+10 8.220946e-02 1.205598e-01 1.997931e-03 2.339276e-03 1.997931e-03 2.339276e-03 8.220946e-02 1.205598e-01
1.506000e+10 9.441467e-02 1.178488e-01 2.205357e-03 2.205357e-03 2.205357e-03 2.205357e-03 9.441467e-02 1.178488e-01
1.515800e+10 1.061276e-01 1.133708e-01 2.409957e-03 2.058298e-03 2.409957e-03 2.058298e-03 1.061276e-01 1.133708e-01
1.525600e+10 1.162443e-01 1.064436e-01 2.611179e-03 1.897132e-03 2.611179e-03 1.897132e-03 1.162443e-01 1.064436e-01
1.535400e+10 1.240026e-01 9.712568e-02 2.808210e-03 1.720873e-03 2.808210e-03 1.720873e-03 1.240026e-01 9.712568e-02
1.545200e+10 1.293977e-01 8.616707e-02 2.999960e-03 1.528556e-03 2.999960e-03 1.528556e-03 1.293977e-01 8.616707e-02
1.555000e+10 1.332020e-01 7.459668e-02 3.185043e-03 1.319288e-03 3.185043e-03 1.319288e-03 1.332020e-01 7.459668e-02
1.564800e+10 1.365943e-01 6.323118e-02 3.361772e-03 1.092306e-03 3.361772e-03 1.092306e-03 1.365943e-01 6.323118e-02
1.574600e+10 1.406478e-01 5.239031e-02 3.528160e-03 8.470363e-04 3.528160e-03 8.470363e-04 1.406478e-01 5.239031e-02
1.584400e+10 1.459145e-01 4.189545e-02 3.681935e-03 5.831611e-04 3.681935e-03 5.831611e-04 1.459145e-01 4.189545e-02
1.594200e+10 1.521965e-01 3.126914e-02 3.820561e-03 3.006846e-04 3.820561e-03 3.006846e-04 1.521965e-01 3.126914e-02
1.604000e+10 1.585347e-01 2.002758e-02 3.941282e-03 4.465898e-18 3.941282e-03 4.465898e-18 1.585347e-01 2.002758e-02
1.613800e+10 1.634750e-01 7.966662e-03 4.041178e-03 -3.180476e-04 4.041178e-03 -3.180476e-04 1.634750e-01 7.966662e-03
1.623600e+10 1.656282e-01 -4.684276e-03 4.117229e-03 -6.521051e-04 4.117229e-03 -6.521051e-04 1.656282e-01 -4.684276e-03
1.633400e+10 1.643198e-01 -1.735770e-02 4.166412e-03 -1.000267e-03 4.166412e-03 -1.000267e-03 1.643198e-01 -1.735770e-02
1.643200e+10 1.599392e-01 -2.946978e-02 4.185794e-03 -1.360047e-03 4.185794e-03 -1.360047e-03 1.599392e-01 -2.946978e-02
1.653000e+10 1.537354e-01 -4.076219e-02 4.172648e-03 -1.728367e-03 4.172648e-03 -1.728367e-03 1.537354e-01 -4.076219e-02
1.662800e+10 1.472084e-01 -5.143631e-02 4.124574e-03 -2.101576e-03 4.124574e-03 -2.101576e-03 1.472084e-01 -5.143631e-02
1.672600e+10 1.414930e-01 -6.202274e-02 4.039622e-03 -2.475483e-03 4.039622e-03 -2.475483e-03 1.414930e-01 -6.202274e-02
1.682400e+10 1.370045e-01 -7.309216e-02 3.916407e-03 -2.845436e-03 3.916407e-03 -2.845436e-03 1.370045e-01 -7.309216e-02
1.692200e+10 1.333809e-01 -8.494028e-02 3.754225e-03 -3.206411e-03 3.754225e-03 -3.206411e-03 1.333809e-01 -8.494028e-02
1.702000e+10 1.296543e-01 -9.734721e-02 3.553138e-03 -3.553138e-03 3.553138e-03 -3.553138e-03 1.296543e-01 -9.734721e-02
1.711800e+10 1.246183e-01 -1.095184e-01 3.314047e-03 -3.880250e-03 3.314047e-03 -3.880250e-03 1.246183e-01 -1.095184e-01
1.721600e+10 1.173299e-01 -1.203164e-01 3.038721e-03 -4.182441e-03 3.038721e-03 -4.182441e-03 1.173299e-01 -1.203164e-01
1.731400e+10 1.075494e-01 -1.287646e-01 2.729808e-03 -4.454642e-03 2.729808e-03 -4.454642e-03 1.075494e-01 -1.287646e-01
1.741200e+10 9.584270e-02 -1.345651e-01 2.390793e-03 -4.692195e-03 2.390793e-03 -4.692195e-03 9.584270e-02 -1.345651e-01
1.751000e+10 8.325352e-02 -1.382836e-01 2.025924e-03 -4.891013e-03 2.025924e-03 -4.891013e-03 8.325352e-02 -1.382836e-01
1.760800e+10 7.077166e-02 -1.410817e-01 1.640109e-03 -5.047737e-03 1.640109e-03 -5.047737e-03 7.077166e-02 -1.410817e-01
1.770600e+10 5.893348e-02 -1.441962e-01 1.238769e-03 -5.159844e-03 1.238769e-03 -5.159844e-03 5.893348e-02 -1.441962e-01
1.780400e+10 4.772058e-02 -1.484542e-01 8.276772e-04 -5.225748e-03 8.276772e-04 -5.225748e-03 4.772058e-02 -1.484542e-01
1.790200e+10 3.670883e-02 -1.539684e-01 4.127777e-04 -5.244838e-03 4.127777e-04 -5.244838e-03 3.670883e-02 -1.539684e-01
1.800000e+10 2.534881e-02 -1.600461e-01 1.597395e-18 -5.217489e-03 1.597395e-18 -5.217489e-03 2.534881e-02 -1.600461e-01
