! Benchmark Measurement Data: Zhang et al. (2025) [JCIS]
! Total Thickness d = 1.2 mm, FBW = 70.0%, Rozanov Ratio = 0.77
# Hz S RI R 50
8.200000e+09 1.187694e-01 0.000000e+00 7.079458e-04 0.000000e+00 7.079458e-04 0.000000e+00 1.187694e-01 0.000000e+00
8.298000e+09 1.172235e-01 -9.040440e-03 7.062388e-04 -5.558220e-05 7.062388e-04 -5.558220e-05 1.172235e-01 -9.040440e-03
8.396000e+09 1.133461e-01 -1.758741e-02 7.011135e-04 -1.110455e-04 7.011135e-04 -1.110455e-04 1.133461e-01 -1.758741e-02
8.494000e+09 1.079105e-01 -2.536981e-02 6.925566e-04 -1.662681e-04 6.925566e-04 -1.662681e-04 1.079105e-01 -2.536981e-02
8.592000e+09 1.019939e-01 -3.243277e-02 6.805469e-04 -2.211231e-04 6.805469e-04 -2.211231e-04 1.019939e-01 -3.243277e-02
8.690000e+09 9.651106e-02 -3.909101e-02 6.650559e-04 -2.754752e-04 6.650559e-04 -2.754752e-04 9.651106e-02 -3.909101e-02
8.788000e+09 9.191322e-02 -4.574615e-02 6.460495e-04 -3.291787e-04 6.460495e-04 -3.291787e-04 9.191322e-02 -4.574615e-02
8.886000e+09 8.811196e-02 -5.267128e-02 6.234894e-04 -3.820748e-04 6.234894e-04 -3.820748e-04 8.811196e-02 -5.267128e-02
8.984000e+09 8.457562e-02 -5.983856e-02 5.973355e-04 -4.339897e-04 5.973355e-04 -4.339897e-04 8.457562e-02 -5.983856e-02
9.082000e+09 8.055081e-02 -6.685082e-02 5.675487e-04 -4.847324e-04 5.675487e-04 -4.847324e-04 8.055081e-02 -6.685082e-02
9.180000e+09 7.537324e-02 -7.304175e-02 5.340931e-04 -5.340931e-04 5.340931e-04 -5.340931e-04 7.537324e-02 -7.304175e-02
9.278000e+09 6.876981e-02 -7.775747e-02 4.969400e-04 -5.818420e-04 4.969400e-04 -5.818420e-04 6.876981e-02 -7.775747e-02
9.376000e+09 6.098563e-02 -8.069599e-02 4.560713e-04 -6.277283e-04 4.560713e-04 -6.277283e-04 6.098563e-02 -8.069599e-02
9.474000e+09 5.263796e-02 -8.208655e-02 4.114833e-04 -6.714798e-04 4.114833e-04 -6.714798e-04 5.263796e-02 -8.208655e-02
9.572000e+09 4.439307e-02 -8.258494e-02 3.631913e-04 -7.128030e-04 3.631913e-04 -7.128030e-04 4.439307e-02 -8.258494e-02
9.670000e+09 3.668092e-02 -8.297061e-02 3.112335e-04 -7.513840e-04 3.112335e-04 -7.513840e-04 3.668092e-02 -8.297061e-02
9.768000e+09 2.958856e-02 -8.383441e-02 2.556760e-04 -7.868898e-04 2.556760e-04 -7.868898e-04 2.958856e-02 -8.383441e-02
9.866000e+09 2.292502e-02 -8.537849e-02 1.966174e-04 -8.189703e-04 1.966174e-04 -8.189703e-04 2.292502e-02 -8.537849e-02
9.964000e+09 1.637868e-02 -8.735008e-02 1.341930e-04 -8.472615e-04 1.341930e-04 -8.472615e-04 1.637868e-02 -8.735008e-02
1.006200e+10 9.696191e-03 -8.911010e-02 6.857984e-05 -8.713895e-04 6.857984e-05 -8.713895e-04 9.696191e-03 -8.911010e-02
1.016000e+10 2.823763e-03 -8.985359e-02 -5.389518e-19 -8.909745e-04 -5.389518e-19 -8.909745e-04 2.823763e-03 -8.985359e-02
1.025800e+10 -4.054793e-03 -8.895089e-02 -7.127517e-05 -9.056369e-04 -7.127517e-05 -9.056369e-04 -4.054793e-03 -8.895089e-02
1.035600e+10 -1.062164e-02 -8.625741e-02 -1.449223e-04 -9.150035e-04 -1.449223e-04 -9.150035e-04 -1.062164e-02 -8.625741e-02
1.045400e+10 -1.661749e-02 -8.219143e-02 -2.205638e-04 -9.187145e-04 -2.205638e-04 -9.187145e-04 -1.661749e-02 -8.219143e-02
1.055200e+10 -2.199461e-02 -7.752070e-02 -2.977666e-04 -9.164314e-04 -2.977666e-04 -9.164314e-04 -2.199461e-02 -7.752070e-02
1.065000e+10 -2.693495e-02 -7.301037e-02 -3.760420e-04 -9.078456e-04 -3.760420e-04 -9.078456e-04 -2.693495e-02 -7.301037e-02
1.074800e+10 -3.174337e-02 -6.914214e-02 -4.548466e-04 -8.926868e-04 -4.548466e-04 -8.926868e-04 -3.174337e-02 -6.914214e-02
1.084600e+10 -3.669028e-02 -6.600072e-02 -5.335856e-04 -8.707325e-04 -5.335856e-04 -8.707325e-04 -3.669028e-02 -6.600072e-02
1.094400e+10 -4.186873e-02 -6.330475e-02 -6.116160e-04 -8.418171e-04 -6.116160e-04 -8.418171e-04 -4.186873e-02 -6.330475e-02
1.104200e+10 -4.710938e-02 -6.053646e-02 -6.882527e-04 -8.058404e-04 -6.882527e-04 -8.058404e-04 -4.710938e-02 -6.053646e-02
1.114000e+10 -5.199875e-02 -5.714588e-02 -7.627760e-04 -7.627760e-04 -7.627760e-04 -7.627760e-04 -5.199875e-02 -5.714588e-02
1.123800e+10 -5.603339e-02 -5.278473e-02 -8.344398e-04 -7.126790e-04 -8.344398e-04 -7.126790e-04 -5.603339e-02 -5.278473e-02
1.133600e+10 -5.886623e-02 -4.746514e-02 -9.024827e-04 -6.556921e-04 -9.024827e-04 -6.556921e-04 -5.886623e-02 -4.746514e-02
1.143400e+10 -6.050407e-02 -4.153667e-02 -9.661391e-04 -5.920508e-04 -9.661391e-04 -5.920508e-04 -6.050407e-02 -4.153667e-02
1.153200e+10 -6.132075e-02 -3.548922e-02 -1.024652e-03 -5.220863e-04 -1.024652e-03 -5.220863e-04 -6.132075e-02 -3.548922e-02
1.163000e+10 -6.188429e-02 -2.971641e-02 -1.077287e-03 -4.462271e-04 -1.077287e-03 -4.462271e-04 -6.188429e-02 -2.971641e-02
1.172800e+10 -6.271817e-02 -2.437716e-02 -1.123347e-03 -3.649977e-04 -1.123347e-03 -3.649977e-04 -6.271817e-02 -2.437716e-02
1.182600e+10 -6.411350e-02 -1.939364e-02 -1.162186e-03 -2.790161e-04 -1.162186e-03 -2.790161e-04 -6.411350e-02 -1.939364e-02
1.192400e+10 -6.603292e-02 -1.454244e-02 -1.193221e-03 -1.889876e-04 -1.193221e-03 -1.889876e-04 -6.603292e-02 -1.454244e-02
1.202200e+10 -6.810777e-02 -9.584046e-03 -1.215950e-03 -9.569737e-05 -1.215950e-03 -9.569737e-05 -6.810777e-02 -9.584046e-03
1.212000e+10 -6.974369e-02 -4.387901e-03 -1.229963e-03 -6.968401e-19 -1.229963e-03 -6.968401e-19 -6.974369e-02 -4.387901e-03
1.221800e+10 -7.034329e-02 9.945210e-04 -1.234948e-03 9.719252e-05 -1.234948e-03 9.719252e-05 -7.034329e-02 9.945210e-04
1.231600e+10 -6.957782e-02 6.356567e-03 -1.230708e-03 1.949250e-04 -1.230708e-03 1.949250e-04 -6.957782e-02 6.356567e-03
1.241400e+10 -6.755407e-02 1.146230e-02 -1.217161e-03 2.922146e-04 -1.217161e-03 2.922146e-04 -6.755407e-02 1.146230e-02
1.251200e+10 -6.475817e-02 1.619405e-02 -1.194349e-03 3.880675e-04 -1.194349e-03 3.880675e-04 -6.475817e-02 1.619405e-02
1.261000e+10 -6.181704e-02 2.062373e-02 -1.162435e-03 4.814964e-04 -1.162435e-03 4.814964e-04 -6.181704e-02 2.062373e-02
1.270800e+10 -5.923553e-02 2.497335e-02 -1.121706e-03 5.715376e-04 -1.121706e-03 5.715376e-04 -5.923553e-02 2.497335e-02
1.280600e+10 -5.723396e-02 2.950271e-02 -1.072565e-03 6.572688e-04 -1.072565e-03 6.572688e-04 -5.723396e-02 2.950271e-02
1.290400e+10 -5.570869e-02 3.437953e-02 -1.015528e-03 7.378246e-04 -1.015528e-03 7.378246e-04 -5.570869e-02 3.437953e-02
1.300200e+10 -5.428765e-02 3.957272e-02 -9.512125e-04 8.124122e-04 -9.512125e-04 8.124122e-04 -5.428765e-02 3.957272e-02
1.310000e+10 -5.246460e-02 4.480900e-02 -8.803243e-04 8.803243e-04 -8.803243e-04 8.803243e-04 -5.246460e-02 4.480900e-02
1.319800e+10 -4.979678e-02 4.964058e-02 -8.036475e-04 9.409503e-04 -8.036475e-04 9.409503e-04 -4.979678e-02 4.964058e-02
1.329600e+10 -4.610008e-02 5.363415e-02 -7.220269e-04 9.937848e-04 -7.220269e-04 9.937848e-04 -4.610008e-02 5.363415e-02
1.339400e+10 -4.152872e-02 5.659659e-02 -6.363534e-04 1.038434e-03 -6.363534e-04 1.038434e-03 -4.152872e-02 5.659659e-02
1.349200e+10 -3.647593e-02 5.869233e-02 -5.475466e-04 1.074621e-03 -5.475466e-04 1.074621e-03 -3.647593e-02 5.869233e-02
1.359000e+10 -3.136141e-02 6.037329e-02 -4.565383e-04 1.102181e-03 -4.565383e-04 1.102181e-03 -3.136141e-02 6.037329e-02
1.368800e+10 -2.644412e-02 6.217772e-02 -3.642568e-04 1.121067e-03 -3.642568e-04 1.121067e-03 -2.644412e-02 6.217772e-02
1.378600e+10 -2.174967e-02 6.451608e-02 -2.716108e-04 1.131341e-03 -2.716108e-04 1.131341e-03 -2.174967e-02 6.451608e-02
1.388400e+10 -1.710975e-02 6.751794e-02 -1.794759e-04 1.133166e-03 -1.794759e-04 1.133166e-03 -1.710975e-02 6.751794e-02
1.398200e+10 -1.226972e-02 7.096024e-02 -8.868143e-05 1.126804e-03 -8.868143e-05 1.126804e-03 -1.226972e-02 7.096024e-02
1.408000e+10 -7.023107e-03 7.429671e-02 -2.043814e-19 1.112600e-03 -2.043814e-19 1.112600e-03 -7.023107e-03 7.429671e-02
1.417800e+10 -1.327549e-03 7.682363e-02 8.586151e-05 1.090974e-03 8.586151e-05 1.090974e-03 -1.327549e-03 7.682363e-02
1.427600e+10 4.659375e-03 7.796649e-02 1.682688e-04 1.062407e-03 1.682688e-04 1.062407e-03 4.659375e-03 7.796649e-02
1.437400e+10 1.066530e-02 7.755653e-02 2.466647e-04 1.027432e-03 2.466647e-04 1.027432e-03 1.066530e-02 7.755653e-02
1.447200e+10 1.646911e-02 7.591602e-02 3.205722e-04 9.866197e-04 3.205722e-04 9.866197e-04 1.646911e-02 7.591602e-02
1.457000e+10 2.203792e-02 7.368980e-02 3.895949e-04 9.405654e-04 3.895949e-04 9.405654e-04 2.203792e-02 7.368980e-02
1.466800e+10 2.754899e-02 7.154356e-02 4.534164e-04 8.898798e-04 4.534164e-04 8.898798e-04 2.754899e-02 7.154356e-02
1.476600e+10 3.329783e-02 6.990453e-02 5.117973e-04 8.351773e-04 5.117973e-04 8.351773e-04 3.329783e-02 6.990453e-02
1.486400e+10 3.954800e-02 6.883167e-02 5.645717e-04 7.770663e-04 5.645717e-04 7.770663e-04 3.954800e-02 6.883167e-02
1.496200e+10 4.637700e-02 6.801163e-02 6.116419e-04 7.161407e-04 6.116419e-04 7.161407e-04 4.637700e-02 6.801163e-02
1.506000e+10 5.356799e-02 6.686378e-02 6.529728e-04 6.529728e-04 6.529728e-04 6.529728e-04 5.356799e-02 6.686378e-02
1.515800e+10 6.061394e-02 6.475081e-02 6.885854e-04 5.881075e-04 6.885854e-04 5.881075e-04 6.061394e-02 6.475081e-02
1.525600e+10 6.688851e-02 6.124909e-02 7.185496e-04 5.220568e-04 7.185496e-04 5.220568e-04 6.688851e-02 6.124909e-02
1.535400e+10 7.193973e-02 5.634715e-02 7.429776e-04 4.552972e-04 7.429776e-04 4.552972e-04 7.193973e-02 5.634715e-02
1.545200e+10 7.573703e-02 5.043396e-02 7.620165e-04 3.882668e-04 7.620165e-04 3.882668e-04 7.573703e-02 5.043396e-02
1.555000e+10 7.870210e-02 4.407530e-02 7.758420e-04 3.213643e-04 7.758420e-04 3.213643e-04 7.870210e-02 4.407530e-02
1.564800e+10 8.151115e-02 3.773252e-02 7.846510e-04 2.549486e-04 7.846510e-04 2.549486e-04 8.151115e-02 3.773252e-02
1.574600e+10 8.480211e-02 3.158818e-02 7.886565e-04 1.893397e-04 7.886565e-04 1.893397e-04 8.480211e-02 3.158818e-02
1.584400e+10 8.892177e-02 2.553150e-02 7.880813e-04 1.248198e-04 7.880813e-04 1.248198e-04 8.892177e-02 2.553150e-02
1.594200e+10 9.377025e-02 1.926533e-02 7.831532e-04 6.163550e-05 7.831532e-04 6.163550e-05 9.377025e-02 1.926533e-02
1.604000e+10 9.876876e-02 1.247740e-02 7.741009e-04 8.771397e-19 7.741009e-04 8.771397e-19 9.876876e-02 1.247740e-02
1.613800e+10 1.030000e-01 5.019519e-03 7.611496e-04 -5.990377e-05 7.611496e-04 -5.990377e-05 1.030000e-01 5.019519e-03
1.623600e+10 1.055452e-01 -2.985015e-03 7.445184e-04 -1.179201e-04 7.445184e-04 -1.179201e-04 1.055452e-01 -2.985015e-03
1.633400e+10 1.059046e-01 -1.118709e-02 7.244177e-04 -1.739173e-04 7.244177e-04 -1.739173e-04 1.059046e-01 -1.118709e-02
1.643200e+10 1.042511e-01 -1.920890e-02 7.010469e-04 -2.277839e-04 7.010469e-04 -2.277839e-04 1.042511e-01 -1.920890e-02
1.653000e+10 1.013346e-01 -2.686838e-02 6.745934e-04 -2.794258e-04 6.745934e-04 -2.794258e-04 1.013346e-01 -2.686838e-02
1.662800e+10 9.811004e-02 -3.428077e-02 6.452318e-04 -3.287620e-04 6.452318e-04 -3.287620e-04 9.811004e-02 -3.428077e-02
1.672600e+10 9.533088e-02 -4.178781e-02 6.131230e-04 -3.757222e-04 6.131230e-04 -3.757222e-04 9.533088e-02 -4.178781e-02
1.682400e+10 9.329470e-02 -4.977289e-02 5.784150e-04 -4.202431e-04 5.784150e-04 -4.202431e-04 9.329470e-02 -4.977289e-02
1.692200e+10 9.177638e-02 -5.844549e-02 5.412431e-04 -4.622652e-04 5.412431e-04 -4.622652e-04 9.177638e-02 -5.844549e-02
1.702000e+10 9.011964e-02 -6.766374e-02 5.017307e-04 -5.017307e-04 5.017307e-04 -5.017307e-04 9.011964e-02 -6.766374e-02
1.711800e+10 8.747407e-02 -7.687490e-02 4.599908e-04 -5.385801e-04 4.599908e-04 -5.385801e-04 8.747407e-02 -7.687490e-02
1.721600e+10 8.314439e-02 -8.526074e-02 4.161276e-04 -5.727505e-04 4.161276e-04 -5.727505e-04 8.314439e-02 -8.526074e-02
1.731400e+10 7.691553e-02 -9.208788e-02 3.702378e-04 -6.041732e-04 3.702378e-04 -6.041732e-04 7.691553e-02 -9.208788e-02
1.741200e+10 6.915059e-02 -9.708886e-02 3.224136e-04 -6.327723e-04 3.224136e-04 -6.327723e-04 6.915059e-02 -9.708886e-02
1.751000e+10 6.057813e-02 -1.006199e-01 2.727443e-04 -6.584629e-04 2.727443e-04 -6.584629e-04 6.057813e-02 -1.006199e-01
1.760800e+10 5.191489e-02 -1.034911e-01 2.213191e-04 -6.811502e-04 2.213191e-04 -6.811502e-04 5.191489e-02 -1.034911e-01
1.770600e+10 4.356675e-02 -1.065975e-01 1.682301e-04 -7.007289e-04 1.682301e-04 -7.007289e-04 4.356675e-02 -1.065975e-01
1.780400e+10 3.553860e-02 -1.105572e-01 1.135747e-04 -7.170826e-04 1.135747e-04 -7.170826e-04 3.553860e-02 -1.105572e-01
1.790200e+10 2.753013e-02 -1.154700e-01 5.745885e-05 -7.300839e-04 5.745885e-05 -7.300839e-04 2.753013e-02 -1.154700e-01
1.800000e+10 1.913732e-02 -1.208283e-01 2.264357e-19 -7.395950e-04 2.264357e-19 -7.395950e-04 1.913732e-02 -1.208283e-01
