! WR-90 X-Band Measurement
! Generated for Metasurface EMI Characterization
# Hz S RI R 50
8.200000e+09 1.331563e-01 0.000000e+00 5.616805e-04 0.000000e+00 5.616805e-04 0.000000e+00 1.331563e-01 0.000000e+00
8.298000e+09 1.293564e-01 -9.976143e-03 5.653772e-04 -4.449615e-05 5.653772e-04 -4.449615e-05 1.293564e-01 -9.976143e-03
8.396000e+09 1.298143e-01 -2.014272e-02 5.854829e-04 -9.273138e-05 5.854829e-04 -9.273138e-05 1.298143e-01 -2.014272e-02
8.494000e+09 1.258806e-01 -2.959456e-02 5.909661e-04 -1.418784e-04 5.909661e-04 -1.418784e-04 1.258806e-01 -2.959456e-02
8.592000e+09 1.208346e-01 -3.842387e-02 5.923702e-04 -1.924728e-04 5.923702e-04 -1.924728e-04 1.208346e-01 -3.842387e-02
8.690000e+09 1.110550e-01 -4.498189e-02 5.737180e-04 -2.376418e-04 5.737180e-04 -2.376418e-04 1.110550e-01 -4.498189e-02
8.788000e+09 1.012965e-01 -5.041629e-02 5.520794e-04 -2.812985e-04 5.520794e-04 -2.812985e-04 1.012965e-01 -5.041629e-02
8.886000e+09 9.514909e-02 -5.687791e-02 5.431922e-04 -3.328686e-04 5.431922e-04 -3.328686e-04 9.514909e-02 -5.687791e-02
8.984000e+09 8.158860e-02 -5.772520e-02 4.957574e-04 -3.601888e-04 4.957574e-04 -3.601888e-04 8.158860e-02 -5.772520e-02
9.082000e+09 7.799308e-02 -6.472811e-02 4.919637e-04 -4.201767e-04 4.919637e-04 -4.201767e-04 7.799308e-02 -6.472811e-02
9.180000e+09 7.000158e-02 -6.783625e-02 4.621701e-04 -4.621701e-04 4.621701e-04 -4.621701e-04 7.000158e-02 -6.783625e-02
9.278000e+09 6.146687e-02 -6.950010e-02 4.242577e-04 -4.967419e-04 4.242577e-04 -4.967419e-04 6.146687e-02 -6.950010e-02
9.376000e+09 5.570290e-02 -7.370590e-02 3.966346e-04 -5.459207e-04 3.966346e-04 -5.459207e-04 5.570290e-02 -7.370590e-02
9.474000e+09 4.799508e-02 -7.484620e-02 3.530738e-04 -5.761641e-04 3.530738e-04 -5.761641e-04 4.799508e-02 -7.484620e-02
9.572000e+09 4.105357e-02 -7.637244e-02 3.091194e-04 -6.066810e-04 3.091194e-04 -6.066810e-04 4.105357e-02 -7.637244e-02
9.670000e+09 3.545836e-02 -8.020522e-02 2.689964e-04 -6.494148e-04 2.689964e-04 -6.494148e-04 3.545836e-02 -8.020522e-02
9.768000e+09 2.772344e-02 -7.854990e-02 2.121286e-04 -6.528648e-04 2.121286e-04 -6.528648e-04 2.772344e-02 -7.854990e-02
9.866000e+09 2.149081e-02 -8.003714e-02 1.614779e-04 -6.726039e-04 1.614779e-04 -6.726039e-04 2.149081e-02 -8.003714e-02
9.964000e+09 1.478895e-02 -7.887178e-02 1.060654e-04 -6.696708e-04 1.060654e-04 -6.696708e-04 1.478895e-02 -7.887178e-02
1.006200e+10 7.990743e-03 -7.343667e-02 4.976861e-05 -6.323701e-04 4.976861e-05 -6.323701e-04 7.990743e-03 -7.343667e-02
1.016000e+10 2.222826e-03 -7.073147e-02 -3.683231e-19 -6.088977e-04 -3.683231e-19 -6.088977e-04 2.222826e-03 -7.073147e-02
1.025800e+10 -3.243378e-03 -7.115069e-02 -4.741398e-05 -6.024518e-04 -4.741398e-05 -6.024518e-04 -3.243378e-03 -7.115069e-02
1.035600e+10 -8.055539e-03 -6.541831e-02 -8.720485e-05 -5.505898e-04 -8.720485e-05 -5.505898e-04 -8.055539e-03 -6.541831e-02
1.045400e+10 -1.331976e-02 -6.588062e-02 -1.289950e-04 -5.373028e-04 -1.289950e-04 -5.373028e-04 -1.331976e-02 -6.588062e-02
1.055200e+10 -1.913313e-02 -6.743533e-02 -1.714040e-04 -5.275274e-04 -1.714040e-04 -5.275274e-04 -1.913313e-02 -6.743533e-02
1.065000e+10 -2.524116e-02 -6.841917e-02 -2.116187e-04 -5.108927e-04 -2.116187e-04 -5.108927e-04 -2.524116e-02 -6.841917e-02
1.074800e+10 -3.124567e-02 -6.805808e-02 -2.466128e-04 -4.840048e-04 -2.466128e-04 -4.840048e-04 -3.124567e-02 -6.805808e-02
1.084600e+10 -3.746437e-02 -6.739320e-02 -2.783643e-04 -4.542492e-04 -2.783643e-04 -4.542492e-04 -3.746437e-02 -6.739320e-02
1.094400e+10 -4.411051e-02 -6.669428e-02 -3.079502e-04 -4.238571e-04 -3.079502e-04 -4.238571e-04 -4.411051e-02 -6.669428e-02
1.104200e+10 -4.921951e-02 -6.324802e-02 -3.248695e-04 -3.803733e-04 -3.248695e-04 -3.803733e-04 -4.921951e-02 -6.324802e-02
1.114000e+10 -5.531473e-02 -6.079010e-02 -3.434733e-04 -3.434733e-04 -3.434733e-04 -3.434733e-04 -5.531473e-02 -6.079010e-02
1.123800e+10 -6.024264e-02 -5.674994e-02 -3.532470e-04 -3.017014e-04 -3.532470e-04 -3.017014e-04 -6.024264e-02 -5.674994e-02
1.133600e+10 -6.447411e-02 -5.198690e-02 -3.577250e-04 -2.599024e-04 -3.577250e-04 -2.599024e-04 -6.447411e-02 -5.198690e-02
1.143400e+10 -6.973445e-02 -4.787342e-02 -3.651409e-04 -2.237587e-04 -3.651409e-04 -2.237587e-04 -6.973445e-02 -4.787342e-02
1.153200e+10 -7.568708e-02 -4.380370e-02 -3.739089e-04 -1.905161e-04 -3.739089e-04 -1.905161e-04 -7.568708e-02 -4.380370e-02
1.163000e+10 -8.517197e-02 -4.089900e-02 -3.946411e-04 -1.634657e-04 -3.946411e-04 -1.634657e-04 -8.517197e-02 -4.089900e-02
1.172800e+10 -9.192990e-02 -3.573111e-02 -4.037178e-04 -1.311759e-04 -4.037178e-04 -1.311759e-04 -9.192990e-02 -3.573111e-02
1.182600e+10 -1.043267e-01 -3.155770e-02 -4.311573e-04 -1.035117e-04 -4.311573e-04 -1.035117e-04 -1.043267e-01 -3.155770e-02
1.192400e+10 -1.086348e-01 -2.392466e-02 -4.313722e-04 -6.832265e-05 -4.313722e-04 -6.832265e-05 -1.086348e-01 -2.392466e-02
1.202200e+10 -1.196249e-01 -1.683348e-02 -4.532029e-04 -3.566784e-05 -4.532029e-04 -3.566784e-05 -1.196249e-01 -1.683348e-02
1.212000e+10 -1.171681e-01 -7.371592e-03 -4.355570e-04 -2.467665e-19 -4.355570e-04 -2.467665e-19 -1.171681e-01 -7.371592e-03
1.221800e+10 -1.226696e-01 1.734316e-03 -4.437164e-04 3.492124e-05 -4.437164e-04 3.492124e-05 -1.226696e-01 1.734316e-03
1.231600e+10 -1.196398e-01 1.093018e-02 -4.293274e-04 6.799878e-05 -4.293274e-04 6.799878e-05 -1.196398e-01 1.093018e-02
