! WR-62 Ku-Band Measurement
! Generated for Metasurface EMI Characterization
# Hz S RI R 50
1.241400e+10 -1.209827e-01 2.052786e-02 -4.298646e-04 1.032014e-04 -4.298646e-04 1.032014e-04 -1.209827e-01 2.052786e-02
1.251200e+10 -1.208081e-01 3.021044e-02 -4.283162e-04 1.391684e-04 -4.283162e-04 1.391684e-04 -1.208081e-01 3.021044e-02
1.261000e+10 -1.145765e-01 3.822561e-02 -4.116048e-04 1.704923e-04 -4.116048e-04 1.704923e-04 -1.145765e-01 3.822561e-02
1.270800e+10 -1.113521e-01 4.694538e-02 -4.052318e-04 2.064759e-04 -4.052318e-04 2.064759e-04 -1.113521e-01 4.694538e-02
1.280600e+10 -1.092549e-01 5.631821e-02 -4.036758e-04 2.473729e-04 -4.036758e-04 2.473729e-04 -1.092549e-01 5.631821e-02
1.290400e+10 -1.086058e-01 6.702396e-02 -4.077400e-04 2.962405e-04 -4.077400e-04 2.962405e-04 -1.086058e-01 6.702396e-02
1.300200e+10 -9.799476e-02 7.143282e-02 -3.820963e-04 3.263410e-04 -3.820963e-04 3.263410e-04 -9.799476e-02 7.143282e-02
1.310000e+10 -9.204572e-02 7.861447e-02 -3.702656e-04 3.702656e-04 -3.702656e-04 3.702656e-04 -9.204572e-02 7.861447e-02
1.319800e+10 -8.572172e-02 8.545284e-02 -3.563274e-04 4.172058e-04 -3.563274e-04 4.172058e-04 -8.572172e-02 8.545284e-02
1.329600e+10 -7.800367e-02 9.075170e-02 -3.359763e-04 4.624317e-04 -3.359763e-04 4.624317e-04 -7.800367e-02 9.075170e-02
1.339400e+10 -6.743638e-02 9.190432e-02 -3.027675e-04 4.940717e-04 -3.027675e-04 4.940717e-04 -6.743638e-02 9.190432e-02
1.349200e+10 -5.860850e-02 9.430519e-02 -2.719239e-04 5.336807e-04 -2.719239e-04 5.336807e-04 -5.860850e-02 9.430519e-02
1.359000e+10 -4.887640e-02 9.409107e-02 -2.333573e-04 5.633744e-04 -2.333573e-04 5.633744e-04 -4.887640e-02 9.409107e-02
1.368800e+10 -3.760478e-02 8.841964e-02 -1.839260e-04 5.660660e-04 -1.839260e-04 5.660660e-04 -3.760478e-02 8.841964e-02
1.378600e+10 -3.079681e-02 9.135260e-02 -1.469537e-04 6.121061e-04 -1.469537e-04 6.121061e-04 -3.079681e-02 9.135260e-02
1.388400e+10 -2.125106e-02 8.386025e-02 -9.505441e-05 6.001499e-04 -9.505441e-05 6.001499e-04 -2.125106e-02 8.386025e-02
1.398200e+10 -1.475103e-02 8.531058e-02 -5.006206e-05 6.360988e-04 -5.006206e-05 6.360988e-04 -1.475103e-02 8.531058e-02
1.408000e+10 -7.911239e-03 8.369217e-02 -1.196842e-19 6.515302e-04 -1.196842e-19 6.515302e-04 -7.911239e-03 8.369217e-02
1.417800e+10 -1.479415e-03 8.561191e-02 5.398265e-05 6.859146e-04 5.398265e-05 6.859146e-04 -1.479415e-03 8.561191e-02
1.427600e+10 4.790977e-03 8.016862e-02 1.058439e-04 6.682719e-04 1.058439e-04 6.682719e-04 4.790977e-03 8.016862e-02
1.437400e+10 1.092649e-02 7.945587e-02 1.623492e-04 6.762331e-04 1.623492e-04 6.762331e-04 1.092649e-02 7.945587e-02
1.447200e+10 1.685060e-02 7.767455e-02 2.181216e-04 6.713093e-04 2.181216e-04 6.713093e-04 1.685060e-02 7.767455e-02
1.457000e+10 2.238728e-02 7.485798e-02 2.705377e-04 6.531359e-04 2.705377e-04 6.531359e-04 2.238728e-02 7.485798e-02
1.466800e+10 2.666563e-02 6.924949e-02 3.104684e-04 6.093286e-04 3.104684e-04 6.093286e-04 2.666563e-02 6.924949e-02
1.476600e+10 3.222317e-02 6.764841e-02 3.603716e-04 5.880730e-04 3.603716e-04 5.880730e-04 3.222317e-02 6.764841e-02
1.486400e+10 3.415773e-02 5.945012e-02 3.750998e-04 5.162806e-04 3.750998e-04 5.162806e-04 3.415773e-02 5.945012e-02
1.496200e+10 3.810810e-02 5.588534e-02 4.043041e-04 4.733793e-04 4.043041e-04 4.733793e-04 3.810810e-02 5.588534e-02
1.506000e+10 4.286340e-02 5.350227e-02 4.356815e-04 4.356815e-04 4.356815e-04 4.356815e-04 4.286340e-02 5.350227e-02
1.515800e+10 4.641043e-02 4.957792e-02 4.522455e-04 3.862541e-04 4.522455e-04 3.862541e-04 4.641043e-02 4.957792e-02
1.525600e+10 5.065014e-02 4.637979e-02 4.692038e-04 3.408965e-04 4.692038e-04 3.408965e-04 5.065014e-02 4.637979e-02
1.535400e+10 5.951834e-02 4.661804e-02 5.131246e-04 3.144432e-04 5.131246e-04 3.144432e-04 5.951834e-02 4.661804e-02
1.545200e+10 6.503241e-02 4.330566e-02 5.262969e-04 2.681617e-04 5.262969e-04 2.681617e-04 6.503241e-02 4.330566e-02
1.555000e+10 6.686912e-02 3.744850e-02 5.114889e-04 2.118657e-04 5.114889e-04 2.118657e-04 6.686912e-02 3.744850e-02
1.564800e+10 7.734628e-02 3.580455e-02 5.437096e-04 1.766620e-04 5.437096e-04 1.766620e-04 7.734628e-02 3.580455e-02
1.574600e+10 8.300182e-02 3.091758e-02 5.422933e-04 1.301931e-04 5.422933e-04 1.301931e-04 8.300182e-02 3.091758e-02
1.584400e+10 8.346653e-02 2.396518e-02 5.120256e-04 8.109689e-05 5.120256e-04 8.109689e-05 8.346653e-02 2.396518e-02
1.594200e+10 9.116133e-02 1.872931e-02 5.154773e-04 4.056895e-05 5.154773e-04 4.056895e-05 9.116133e-02 1.872931e-02
1.604000e+10 8.884021e-02 1.122313e-02 4.732445e-04 5.362370e-19 4.732445e-04 5.362370e-19 8.884021e-02 1.122313e-02
1.613800e+10 9.320656e-02 4.542255e-03 4.608291e-04 -3.626804e-05 4.608291e-04 -3.626804e-05 9.320656e-02 4.542255e-03
1.623600e+10 9.653854e-02 -2.730290e-03 4.444791e-04 -7.039858e-05 4.444791e-04 -7.039858e-05 9.653854e-02 -2.730290e-03
1.633400e+10 1.009170e-01 -1.066023e-02 4.325584e-04 -1.038481e-04 4.325584e-04 -1.038481e-04 1.009170e-01 -1.066023e-02
1.643200e+10 1.041258e-01 -1.918582e-02 4.175356e-04 -1.356655e-04 4.175356e-04 -1.356655e-04 1.041258e-01 -1.918582e-02
1.653000e+10 1.071880e-01 -2.842038e-02 4.034601e-04 -1.671186e-04 4.034601e-04 -1.671186e-04 1.071880e-01 -2.842038e-02
1.662800e+10 1.076600e-01 -3.761763e-02 3.835695e-04 -1.954384e-04 3.835695e-04 -1.954384e-04 1.076600e-01 -3.761763e-02
1.672600e+10 1.148280e-01 -5.033426e-02 3.840471e-04 -2.353444e-04 3.840471e-04 -2.353444e-04 1.148280e-01 -5.033426e-02
1.682400e+10 1.124365e-01 -5.998506e-02 3.605057e-04 -2.619227e-04 3.605057e-04 -2.619227e-04 1.124365e-01 -5.998506e-02
1.692200e+10 1.069838e-01 -6.812998e-02 3.320010e-04 -2.835556e-04 3.320010e-04 -2.835556e-04 1.069838e-01 -6.812998e-02
1.702000e+10 1.018667e-01 -7.648368e-02 3.069758e-04 -3.069758e-04 3.069758e-04 -3.069758e-04 1.018667e-01 -7.648368e-02
1.711800e+10 9.882313e-02 -8.684881e-02 2.888853e-04 -3.382412e-04 2.888853e-04 -3.382412e-04 9.882313e-02 -8.684881e-02
1.721600e+10 8.876444e-02 -9.102385e-02 2.559782e-04 -3.523238e-04 2.559782e-04 -3.523238e-04 8.876444e-02 -9.102385e-02
1.731400e+10 7.714858e-02 -9.236690e-02 2.207901e-04 -3.602967e-04 2.207901e-04 -3.602967e-04 7.714858e-02 -9.236690e-02
1.741200e+10 6.900759e-02 -9.688808e-02 1.941222e-04 -3.809863e-04 1.941222e-04 -3.809863e-04 6.900759e-02 -9.688808e-02
1.751000e+10 6.204693e-02 -1.030596e-01 1.698315e-04 -4.100096e-04 1.698315e-04 -4.100096e-04 6.204693e-02 -1.030596e-01
1.760800e+10 5.004719e-02 -9.976789e-02 1.337336e-04 -4.115898e-04 1.337336e-04 -4.115898e-04 5.004719e-02 -9.976789e-02
1.770600e+10 4.284233e-02 -1.048250e-01 1.064538e-04 -4.434119e-04 1.064538e-04 -4.434119e-04 4.284233e-02 -1.048250e-01
1.780400e+10 3.554148e-02 -1.105661e-01 7.622212e-05 -4.812475e-04 7.622212e-05 -4.812475e-04 3.554148e-02 -1.105661e-01
1.790200e+10 2.557666e-02 -1.072765e-01 3.858203e-05 -4.902311e-04 3.858203e-05 -4.902311e-04 2.557666e-02 -1.072765e-01
1.800000e+10 1.793681e-02 -1.132486e-01 1.639740e-19 -5.355798e-04 1.639740e-19 -5.355798e-04 1.793681e-02 -1.132486e-01
